%NProcShared=4
#p b3lyp/6-311++G(3df,2p) freq symmetry=Loose

 b3lyp opt

0 1
    C   -1.118892    0.000405    0.000416
    C    0.201220    0.000002   -0.000875
    C    1.481083   -0.000536    0.000448
    H   -1.690001   -0.923557    0.000938
    H   -1.689552    0.924689    0.000931

