%NProcShared=4
#p b3lyp/6-311++G(3df,2p) freq symmetry=Loose

 b3lyp opt

1 4
    C   -1.487527   -0.001055   -0.000040
    C   -0.191398    0.000572    0.000067
    C    1.117375    0.000416   -0.000000
    H    1.684151    0.936863   -0.000053
    H    1.685277   -0.935242   -0.000054

