%NProcShared=4
#p b3lyp/6-311++G(3df,2p) freq symmetry=Loose

 b3lyp opt

0 3
    C   -1.479075    0.059869    0.000063
    C   -0.207073   -0.127552    0.000177
    C    1.126435    0.035689   -0.000959
    H    1.578117    1.018934   -0.000631
    H    1.778783   -0.828671   -0.001419

