%NProcShared=1
#p b3lyp/6-311++G(3df,2p) freq symmetry=Loose

 b3lyp opt

0 3
C -1.169580000 -0.444250000  0.000020000
C -0.151861000  0.442248000 -0.000049000
C  1.115393001 -0.076881002  0.000046997
H  1.593941989 -1.040568958  0.000169291
H -0.357650995  1.513864980 -0.000175254

