%NProcShared=4
#p b3lyp/6-311++G(3df,2p) freq symmetry=Loose

 b3lyp opt

1 2
    S    0.048776   -1.547696   -0.000002
    S   -0.829148    1.307878    0.000008
    S    0.780373    0.239819    0.000000

