%NProcShared=4
#p b3lyp/6-311++G(3df,2p) freq symmetry=Loose

 b3lyp opt

1 2
    S   -0.654095   -0.488636    0.000000
    S    1.220971   -0.952332    0.000000
    S   -0.566877    1.440966    0.000000

