%NProcShared=4
#p b3lyp/6-311++G(3df,2p) freq symmetry=Loose

 b3lyp opt

1 4
    S   -0.260211   -1.224613   -0.000001
    S   -0.930670    0.837408    0.000007
    S    1.190881    0.387205   -0.000001

