%NProcShared=4
#p b3lyp/6-311++G(3df,2p) freq symmetry=Loose

 b3lyp opt

0 3
    S    1.066963    0.864077    0.616341
    S   -0.281741   -0.272000    1.569997
    S    0.191867    0.193617   -1.416960
    S   -1.156817   -0.940535   -0.460992

