%NProcShared=4
#p b3lyp/6-311++G(3df,2p) freq symmetry=Loose

 b3lyp opt

1 4
    S    0.098028    1.561129    0.090908
    S   -0.054861    0.256164    1.544441
    S   -0.098125   -1.561162   -0.090948
    S    0.054958   -0.256131   -1.544401

