%NProcShared=4
#p b3lyp/6-311++G(3df,2p) freq symmetry=Loose

 b3lyp opt

0 3
    S    1.436700    0.523364    0.061158
    S   -0.644188    1.213174   -0.674488
    S    0.644052   -1.213551    0.673230
    S   -1.436565   -0.522989   -0.059900

