%NProcShared=4
#p b3lyp/6-311++G(3df,2p) freq symmetry=Loose

 b3lyp opt

1 4
    S    1.077500    0.870456    0.686194
    S   -0.241415   -0.239475    1.618357
    S    0.150830    0.161579   -1.465745
    S   -1.166643   -0.947402   -0.530419

