%NProcShared=4
#p b3lyp/6-311++G(3df,2p) freq symmetry=Loose

 b3lyp opt

1 4
    S    0.092138   -1.383113   -0.164405
    S   -1.522177   -0.000024    0.242190
    S    0.092160    1.383113   -0.164406
    S    1.737880    0.000023    0.086620

