%NProcShared=4
#p b3lyp/6-311++G(3df,2p) freq symmetry=Loose

 b3lyp opt

0 3
    S    0.081176   -1.263028   -0.394874
    S   -1.498886   -0.000010    0.472087
    S    0.081167    1.263029   -0.394873
    S    1.736543    0.000009    0.317659

