%NProcShared=4
#p b3lyp/6-311++G(3df,2p) freq symmetry=Loose

 b3lyp opt

1 4
    S   -0.000001    1.149041    2.134440
    S    0.000001   -0.570143    1.402966
    S   -0.000001   -0.632162   -1.365630
    S    0.000001    1.053264   -2.171776

