%NProcShared=4
#p b3lyp/6-311++G(3df,2p) freq symmetry=Loose

 b3lyp opt

1 4
    S    0.098829   -1.631961   -0.165647
    S   -1.281418    0.000127    0.176604
    S    0.098585    1.631962   -0.165643
    S    1.484004   -0.000128    0.154685

