%NProcShared=4
#p b3lyp/6-311++G(3df,2p) freq symmetry=Loose

 b3lyp opt

1 4
    S    1.488343    0.483339    0.089027
    S   -0.713412    1.213602   -0.688247
    S    0.712748   -1.213397    0.687916
    S   -1.487681   -0.483546   -0.088697

