%NProcShared=4
#p b3lyp/6-311++G(3df,2p) freq symmetry=Loose

 b3lyp opt

0 3
    S   -0.286760    1.428704   -0.201722
    S    1.615641    0.501352   -0.389550
    S    0.703019   -1.117889    0.639831
    S   -0.427513    0.377915    1.639611
    S   -1.604387   -1.190081   -1.688170

