%NProcShared=4
#p b3lyp/6-311++G(3df,2p) freq symmetry=Loose

 b3lyp opt

1 2
    S   -1.572542    0.111496    1.527490
    S    3.360392    0.909480    0.848790
    S   -1.242343   -0.821048   -0.275317
    S    0.832120   -0.391708   -0.123670
    S    0.498854    0.546441    1.689661
    S    4.479766   -0.354725    1.716038

