%NProcShared=4
#p b3lyp/6-311++G(3df,2p) freq symmetry=Loose

 b3lyp opt

0 3
    S    2.070632    0.027698   -1.047525
    S   -0.588870    0.850160   -1.068971
    S    2.126556    0.282112    0.832062
    S   -0.523676    1.099557    0.804678
    S   -1.510269   -1.474684    1.180217
    S   -1.574375   -1.718707   -0.700460

