#p b3lyp/6-311++G(3df,2p) opt freq

 b3lyp opt

0 4
    7       0.000000    0.000000    0.00
    6       0.000000    0.000000   -1.24
    6       0.000000    0.000000    1.24

