#p b3lyp/6-311++G(3df,2p) opt freq

 b3lyp opt

0 2
    6       0.000000    0.000000    1.254
    6       0.000000    0.000000   -1.254
    7       0.000000    0.000000    0.000

