#p b3lyp/6-311++G(3df,2p) opt freq

 b3lyp opt

0 2
    6      -1.676021    0.049963    0.00
    6      -0.373316   -0.054994    0.00
    6       0.992067    0.683282    0.00
    7       0.906231   -0.581358    0.00

