%NProcShared=1
#p b3lyp/6-311++G(3df,2p) freq symmetry=Loose

 b3lyp opt

0 2
    C   -0.000000   -0.152083   -0.648618
    C   -0.000000    0.055848   -1.902426
    C   -0.000000    0.046938    1.818016
    N    0.000000   -0.020702    0.632380

