#p b3lyp/6-311++G(3df,2p) opt freq

 b3lyp opt

0 2
    6       0.00   0.7    0.000000
    6       1.2    0.0    0.000000
    6       0.0   -0.7    0.000000
    7      -1.2    0.0    0.000000

