%NProcShared=1
#p b3lyp/6-311++G(3df,2p) freq symmetry=Loose

 b3lyp opt

0 4
C -0.720717652 -0.511138640  0.223515468
C -0.313877879 -0.116960860 -1.064524479
C  0.537551348  0.661079360 -0.258507532
N  0.422527584 -0.089096022  0.925546179

