%NProcShared=2
#p b3lyp/6-311++G(3df,2p) freq symmetry=Loose

 b3lyp opt

0 1
C  0.869400000  0.710122000  0.245330000
C  0.129315000  0.075690000  1.233817000
C -0.158501474 -0.124798559 -0.218935575
C -1.019940526 -0.815855441 -0.951825425

