#p b3lyp/6-311+G(3df) freq symmetry=Loose

 b3lyp opt

2 3
    6       0.985    0.676    0.0
    6      -0.250    0.00     0.0
    6      -1.72     0.00     0.0
    6       0.985   -0.676    0.0

