%NProcShared=4
#p b3lyp/6-311++G(3df,2p) freq symmetry=Loose

 b3lyp opt

0 1
    C    0.000000    0.000000    1.950380
    C    0.000000    0.000000    0.644704
    C    0.000000    0.000000   -0.644704
    C    0.000000    0.000000   -1.950380

