%NProcShared=4
#p b3lyp/6-311+G(3df) freq symmetry=Loose

 b3lyp opt

2 1
C -0.166647656  1.211978474  0.751976556
C -0.000000000  0.000000000 -0.000000250
C  0.400682124  0.059169858 -1.377710358
C -0.234034468 -1.271148331  0.625733052

