%NProcShared=4
#p b3lyp/6-311++G(3df,2p) freq symmetry=Loose

 b3lyp opt

1 2
    C    0.063643   -0.802221   -0.023231
    C   -1.045586   -0.000006    0.024824
    C    0.063635    0.802221   -0.023231
    C    1.318308    0.000006    0.021637

