%NProcShared=4
#p b3lyp/6-311++G(3df,2p) freq symmetry=Loose

 b3lyp opt

0 1
    C    0.050491    0.743837   -0.038485
    C   -0.052676    0.067199    1.230368
    C   -0.050546   -0.743774    0.038479
    C    0.052731   -0.067261   -1.230362

