%NProcShared=2
#p b3lyp/6-311++G(3df,2p) freq symmetry=Loose

 b3lyp opt

0 3
C  0.053129082  0.782251583 -0.040448073
C -0.050891073  0.064901955  1.188040523
C -0.053129937 -0.782250492  0.040468028
C  0.050891927 -0.064903045 -1.188060477

