%NProcShared=1
#p b3lyp/6-311++G(3df,2p) freq symmetry=Loose

 b3lyp opt

0 2
C -1.932131371  0.983126419 -0.018025883
C  1.653199793 -0.086387860  0.319465999
C  0.316297818 -0.111680142  0.003676170
C  1.125614589 -1.182010612 -0.291398150
N -0.871305282  0.466588310 -0.007786688

