%NProcShared=1
#p b3lyp/6-311++G(3df,2p) freq symmetry=Loose

 b3lyp opt

0 2
C  0.849480848 -0.102724154  0.304527275
C -0.149579632 -1.096292635 -0.345913302
C  0.601347655  1.054579380 -0.461964544
C -0.632099152  0.371714846 -0.489098725
N -0.514199331 -0.214873804  0.861699253

