#p b3lyp/6-311++G(3df,2p) opt freq

 b3lyp opt

0 2
    7       0.00    0.27     0.000 
    6       0.69    1.48     0.000 
    6      -0.69    1.48     0.000 
    6       0.00   -2.28     0.000 
    6       0.00   -0.99     0.000 

