#p b3lyp/6-311++G(3df,2p) opt freq

 b3lyp opt

0 4
    6      -1.547816   -0.593317    0.00
    6      -0.172077   -0.201808    0.00
    6       1.112821   -0.042919    0.00
    6       2.355844    0.091023    0.00
    7      -1.498949    0.640303    0.00

