%NProcShared=1
#p b3lyp/6-311++G(3df,2p) freq symmetry=Loose

 b3lyp opt

0 2
    C   -2.282351   -0.721558   -0.380494
    C    2.451818    0.798777    0.372352
    C    1.219016    0.402834    0.176204
    C    0.036667    0.023099   -0.011880
    N   -1.153967   -0.359183   -0.201217

