%NProcShared=1
#p b3lyp/6-311++G(3df,2p) freq symmetry=Loose

 b3lyp opt

0 4
    C   -2.279482   -0.720662   -0.380167
    C    2.427678    0.790956    0.368393
    C    1.236077    0.408370    0.178980
    C    0.042282    0.024975   -0.010874
    N   -1.155373   -0.359670   -0.201367

