#p b3lyp/6-311++G(3df,2p) opt freq

 b3lyp opt

0 2
    6       0.00    -1.01    0.000000
    6       0.00     0.38    0.000000
    6      -0.68     1.58    0.000000
    6       0.68     1.58    0.000000
    7       0.00    -2.16    0.000000

