#p b3lyp/6-311++G(3df,2p) opt freq

 b3lyp opt

0 2
    6       1.558248    0.653702    0.00
    6       0.217352    0.058012    0.00
    6      -1.077132    0.001754    0.00
    6      -2.360900    0.003355    0.00
    7       1.424941   -0.614419    0.00

