%NProcShared=4
#p b3lyp/6-311++G(3df,2p) freq symmetry=Loose

 b3lyp opt

0 3
    C    0.000000    0.000000    2.550000
    C    0.000000    0.000000    1.292000
    C    0.000000    0.000000    0.000000
    C    0.000000    0.000000   -1.292000
    C    0.000000    0.000000   -2.550000

