%NProcShared=4
#p b3lyp/6-311++G(3df,2p) freq symmetry=Loose

 b3lyp opt

1 2
    C   -0.193190   -1.003740   -0.265872
    C   -1.025273    0.147893    0.272185
    C   -0.239279    0.959092    0.968065
    C    0.578679    0.427927   -0.030940
    C    0.879062   -0.531172   -0.943438

