%NProcShared=4
#p b3lyp/6-311+G(3df) freq symmetry=Loose

 b3lyp opt

2 3
C  0.037961480  1.779214122  1.099561265
C  0.599416801 -0.187371133 -0.738357257
C -0.618891447 -0.725384746  0.174270565
C -0.029957322 -1.404067745 -0.867719341
C  0.011470487  0.537609502  0.332244768

