%NProcShared=4
#p b3lyp/6-311++G(3df,2p) freq symmetry=Loose

 b3lyp opt

0 3
    C    0.000428   -0.662086   -0.000583
    C   -1.390011   -0.401749    0.112525
    C   -0.705982    0.732257   -0.221114
    C    0.704664    0.731953    0.221425
    C    1.390901   -0.400376   -0.112254

