%NProcShared=2
#p b3lyp/6-311++G(3df,2p) freq symmetry=Loose

 b3lyp opt

0 1
C  1.822066064  0.203027722 -0.016823510
C -0.610009672 -0.833446059  0.013083925
C -1.903911570 -0.244587312  0.017440306
C -0.786418330  0.633960967 -0.000378326
C  0.520281507  0.046639682 -0.004852395

