%NProcShared=1
#p b3lyp/6-311++G(3df,2p) freq symmetry=Loose

 b3lyp opt

0 3
C -0.747961732 -0.318676918 -1.361878267
C  0.448872399  0.118441618 -0.878624538
C  0.945970234 -0.058904887  1.738154987
C -0.977874601  0.144940618 -0.101236538
C  0.330994700  0.114199569  0.603584355

