%NProcShared=4
#p b3lyp/6-311++G(3df,2p) freq symmetry=Loose

 b3lyp opt

1 4
    C   -0.021990    0.767306    0.117653
    C   -1.339448    0.413049   -0.156669
    C   -0.667665   -0.785150    0.187008
    C    0.692000   -0.773685   -0.167591
    C    1.337102    0.378480    0.019599

