%NProcShared=4
#p b3lyp/6-311++G(3df,2p) freq symmetry=Loose

 b3lyp opt

1 2
    C    2.542511   -0.000000    0.000000
    C    1.281338    0.000000   -0.000000
    C    0.000000    0.000000    0.000000
    C   -1.281338    0.000000    0.000000
    C   -2.542511   -0.000000    0.000000

