%NProcShared=4
#p b3lyp/6-311++G(3df,2p) freq symmetry=Loose

 b3lyp opt

0 3
    C   -0.860881   -0.084902   -1.085180
    C    0.451753    1.180982    0.204613
    C   -0.507522    0.595626    1.014037
    C    0.894820   -1.008644    0.334642
    C    0.566177   -0.003553   -0.701341
    C   -0.544347   -0.679510    0.233229

