%NProcShared=4
#p b3lyp/6-311++G(3df,2p) freq symmetry=Loose

 b3lyp opt

0 1
    C    1.614227   -0.191300    1.604583
    C    0.115912    0.194034   -0.627930
    C    2.947365    0.272390    1.559601
    C    2.295059   -0.057652    0.353396
    C    0.653279   -0.283071   -1.842851
    C   -0.415881    0.218246    0.622496
    C    0.256614   -0.202014    1.622452
    C    1.527890    0.047508   -0.785731

