%NProcShared=2
#p b3lyp/6-311++G(3df,2p) freq symmetry=Loose

 b3lyp opt

0 1
C -0.533478497  1.174436106  2.144112104
C -0.987939521  0.998247496 -0.146793794
C -1.157904710  1.494202785  0.979851379
C  1.395774544  0.116239272  0.025271253
C -0.017383661 -0.043467124 -0.260040476
C  0.769051702 -0.446198173  1.206290993
C  0.344155974  0.316085628  2.336936767
C -0.094529831 -1.316380990  0.431091774

