%NProcShared=2
#p b3lyp/6-311++G(3df,2p) freq symmetry=Loose

 b3lyp opt

0 3
C -1.043663118  0.599371615  0.100454931
C  1.387947735 -1.001981937  0.365755644
C  0.401850772  0.342899877 -1.436839246
C -0.709171972  0.960517301 -1.280088066
C -0.273469140  0.788351079  1.288479544
C -1.186492127 -0.699166652  0.678133673
C  0.180997350 -0.546674187  1.061582578
C  1.242000501 -0.443318096 -0.777480058

