%NProcShared=2
#p b3lyp/6-311++G(3df,2p) freq

 b3lyp opt

0 3
C -0.314998386  1.062331535 -0.980327076
C -0.489531737 -2.260805561 -1.022774948
C -0.433441264 -0.955044256 -1.034974562
C -0.785817281  0.172985504 -1.972370591
C -1.318947954  0.101102275 -3.197334933
C  1.044287087 -0.060556260  2.284820838
C -0.114772670  0.011119234  1.484550658
C  1.258112757 -0.053401734  0.890827777
C  0.073819449  0.049941263  0.028767838

