%NProcShared=2
#p b3lyp/6-311++G(3df,2p) freq

 b3lyp opt

0 3
C  0.376413000 -1.698815000  0.000150000
C  1.631930000 -1.222281000 -0.000167000
C  1.746734889  0.038847927 -0.000357984
C  1.477288953  1.352405969 -0.000478331
C  0.260467905  1.698543937 -0.000278605
C -1.074979029  1.677679981 -0.000006088
C -1.673647886  0.551181075  0.000264717
C -1.858209910 -0.748482941  0.000474919
C -0.885997922 -1.649079949  0.000398372

