%NProcShared=4
#p b3lyp/6-311++G(3df,2p) freq symmetry=Loose

 b3lyp opt

0 1
    C    0.569373    1.658978   -0.099580
    C   -0.698791    1.859223    0.054792
    C   -1.495566    0.830562   -0.011990
    C   -1.983732   -0.375232   -0.024087
    C   -1.106095   -1.326256    0.056708
    C    0.036195   -1.944722   -0.093391
    C    1.173788   -1.383053    0.148081
    C    1.843131   -0.283953   -0.154099
    C    1.661696    0.964453    0.123566

