%NProcShared=2
#p b3lyp/6-311++G(3df,2p) freq symmetry=Loose

 b3lyp opt

0 1
C -1.195182000  1.383657000  0.000018000
C  0.968019000 -0.087798000  0.000153000
C  0.078615022 -1.225565980 -0.000160485
C -2.143610961  0.455648035 -0.000274061
C -1.163831949 -1.335882953 -0.000379458
C  2.307653945  0.013773950  0.000386530
C -2.406311926 -0.792974933 -0.000501740
C  3.566250881  0.141886892  0.000610772
C -0.011602012  0.947256989  0.000146442

