%NProcShared=4
#p b3lyp/6-311++G(3df,2p) freq symmetry=Loose

 b3lyp opt

0 4
    C    0.848018    0.000000    0.000000
    F   -0.476075    0.000000    0.000000

