%NProcShared=4
#p b3lyp/6-311++G(3df,2p) freq symmetry=Loose

 b3lyp opt

1 1
    C    0.769105    0.000000    0.000000
    F   -0.384124    0.000000    0.000000

