%NProcShared=4
#p b3lyp/6-311++G(3df,2p) freq symmetry=Loose

 b3lyp opt

1 3
    C    0.797976    0.000000    0.000000
    F   -0.412995    0.000000    0.000000

