%NProcShared=4
#p b3lyp/6-311++G(3df,2p) freq symmetry=Loose

 b3lyp opt

0 1
    C   -0.640109   -0.081121   -0.005423
    F    0.022052    1.038431    0.010018
    F    0.273153   -1.007338   -0.024976

