%NProcShared=1
#p b3lyp/6-311++G(3df,2p) freq symmetry=Loose

 b3lyp opt

1 4
C  0.531126000 -0.457688000  0.000000000
F  0.503144798  0.896602940 -0.000000000
F -0.812033798 -0.633211940  0.000000000

