%NProcShared=4
#p b3lyp/6-311++G(3df,2p) freq symmetry=Loose

 b3lyp opt

0 3
    C    0.040518   -0.539587   -0.083936
    F    1.132009    0.180366    0.054845
    F   -1.136084    0.036430    0.029037

