%NProcShared=4
#p b3lyp/6-311++G(3df,2p) freq symmetry=Loose

 b3lyp opt

1 2
    C    0.010203   -0.494071   -0.029801
    F    1.080850    0.078781    0.051584
    F   -1.073922    0.058864   -0.035164

