%NProcShared=1
#p b3lyp/6-311++G(3df,2p) freq symmetry=Loose

 b3lyp opt

1 1
C -0.011936696  0.043705043 -0.075964580
F  0.251612789  1.228193278  0.147167477
F  0.896387545 -0.788760668 -0.140822388
F -1.183810421 -0.308317480 -0.234238828

