%NProcShared=4
#p b3lyp/6-311++G(3df,2p) freq symmetry=Loose

 b3lyp opt

0 2
    C   -0.302127    0.236407   -0.045951
    F    0.638938    0.306669   -0.966525
    F   -0.878724   -0.949146   -0.037814
    F    0.166559    0.551160    1.145431

