%NProcShared=1
#p b3lyp/6-311++G(3df,2p) freq symmetry=Loose

 b3lyp opt

1 2
C -0.017412864  0.084391477  0.061057682
F -0.261280716  0.324251856  1.340286104
F  0.778869056  1.026362943 -0.420662931
F -1.157271864  0.082839627 -0.612848052
F  0.570032070 -1.095888516 -0.062544394

