%NProcShared=1
#p b3lyp/6-311++G(3df,2p) freq symmetry=Loose

 b3lyp opt

0 2
    C   -0.642369    0.000000    0.000000
    N    0.519761    0.000000    0.000000

