%NProcShared=1
#p b3lyp/6-311++G(3df,2p) freq symmetry=Loose

 b3lyp opt

0 4
F -0.960205555 -0.509487130 -0.000000000
F  0.920723555 -0.577788870  0.000000000
F  0.039482000  1.087276000  0.000000000

