%NProcShared=4
#p b3lyp/6-311++G(3df,2p) freq symmetry=Loose

 b3lyp opt

1 2
    C    0.000000    0.000000    0.090641
    H    0.000000    1.034967   -0.271924
    H    0.000000   -1.034967   -0.271924

