%NProcShared=4
#p b3lyp/6-311++G(3df,2p) freq symmetry=Loose

 b3lyp opt

1 4
    C    0.000000    0.000000    0.230158
    H    0.000000    0.774208   -0.690474
    H    0.000000   -0.774208   -0.690474

