%NProcShared=4
#p b3lyp/6-311++G(3df,2p) freq

 b3lyp opt

0 3
    C    0.000000    0.000000    0.303225
    H    0.000000    0.458879   -0.909676
    H    0.000000   -0.458879   -0.909676

