%NProcShared=4
#p b3lyp/6-311++G(3df,2p) freq IOp(2/17=3) IOp(2/18=3)

 b3lyp opt

2 3
C -0.000540718 -0.000013799 -0.000280283
C  0.548388056 -0.576149734 -1.048649919
C -0.549268338  0.576157532  1.048175202
H -1.009356081  1.060612488  1.929852893
H  1.010858081 -1.060185488 -1.929310893

