%NProcShared=4
#p b3lyp/6-311++G(3df,2p) freq symmetry=Loose

 b3lyp opt

1 3
    C   -0.086509    0.339404    0.044080
    H    0.192830   -0.139817    1.089775
    H    0.916288   -0.153437   -0.346730
    F   -1.142149   -0.067220   -0.483766

