%NProcShared=4
#p b3lyp/6-311++G(3df,2p) freq symmetry=Loose

 b3lyp opt

1 1
    H    1.038289   -0.560092    0.767818
    H   -0.569055   -0.048258   -1.496328
    C   -0.705761   -0.343556   -0.429815
    F    0.862302   -0.325535   -0.143675

