%NProcShared=1
#p b3lyp/6-311++G(3df,2p) freq symmetry=Loose

 b3lyp opt

1 2
H  0.403503506  1.117054458 -0.348082394
H  0.329071939 -0.201931860 -1.328160772
C  0.320762658 -0.036690369 -0.169501905
F  1.365935858 -0.512495837  0.391460398
F -0.798291771 -0.362990752  0.354618130

