%NProcShared=4
#p b3lyp/6-311++G(3df,2p) freq symmetry=Loose

 b3lyp opt

1 1
    C   -0.026229    0.834249   -1.212892
    H    0.508106    1.597072   -0.592480
    H    0.271691   -0.201346    0.799334
    F   -0.087535   -0.304240   -0.083944

