%NProcShared=4
#p b3lyp/6-311++G(3df,2p) freq symmetry=Loose

 b3lyp opt

0 2
    C    0.061880    0.098523    0.117451
    H    0.046269   -0.034417    1.188192
    H    0.905403   -0.108019   -0.523027
    F   -1.133093    0.022843   -0.479256

