%NProcShared=4
#p b3lyp/6-311++G(3df,2p) freq symmetry=Loose

 b3lyp opt

1 2
    H    0.113608   -1.068304    0.153358
    H   -0.154350   -2.247797    0.241826
    F    0.507165   -0.032874    0.106529
    F   -0.578969    0.821683   -0.207661

