%NProcShared=4
#p b3lyp/6-311++G(3df,2p) freq symmetry=Loose

 b3lyp opt

1 3
    C    0.334671   -0.001882    0.098020
    H   -0.062174    0.001382    1.108666
    H   -0.037096    0.639399   -0.824937
    H   -0.035401   -0.638899   -0.826721

