%NProcShared=4
#p b3lyp/6-311++G(3df,2p) freq symmetry=Loose

 b3lyp opt

0 2
    C   -1.163727    1.291565    0.000000
    H   -1.537473    2.301419    0.000000
    C    0.000000    0.688809    0.000000
    H    0.913092    1.285252    0.000000
    C    0.193218   -0.754519    0.000000
    H   -0.678421   -1.433327    0.000000
    C    1.187643   -1.584745    0.000000

