%NProcShared=1
#p b3lyp/6-311++G(3df,2p) freq symmetry=Loose

 b3lyp opt

1 3
C  0.628510019  1.063046602 -0.000000000
C  1.180407048 -0.241696913  0.000000000
H  2.213267393 -0.554989950  0.000000000
C -0.000083659 -1.094872994  0.000000000
H -0.000167152 -2.178988018  0.000000000
C -1.180442938 -0.241515093 -0.000000000
H -2.213351527 -0.554649035 -0.000000000
C -0.628344946  1.063143398 -0.000000000

