%NProcShared=1
#p b3lyp/6-311++G(3df,2p) freq symmetry=Loose

 b3lyp opt

3 3
C -1.679575401 -0.000156642 -0.194270477
C -0.593843563  0.795339692  0.056349195
C -0.592409563 -0.795540308  0.050420195
H -2.781014782 -0.000372580 -0.402725900
C  0.712847319  0.000008503  0.340053816
H  1.060905464 -0.003782416  1.441422216
C  1.938443204  0.003548665 -0.313423710
H  3.007014371  0.005865076 -0.676520535

