%NProcShared=1
#p b3lyp/6-311++G(3df,2p) freq symmetry=Loose

 b3lyp opt

0 4
H  0.675509858 -1.658915978  0.895462634
C -0.575199066  0.000029010  0.000144888
C -1.979094760 -0.118663038  0.000540030
C  1.382490012  0.246311998 -0.000402518
C  0.320298935  1.108914010 -0.000061023
H  0.183156924  2.177304012  0.000025805
C  0.595893909 -1.046517986 -0.000235884
H  0.674998858 -1.658835978 -0.896034366

