%NProcShared=4
#p b3lyp/6-311++G(3df,2p) freq symmetry=Loose

 b3lyp opt

1 3
    C    1.645229   -0.861023   -0.389638
    C   -1.053956    0.119246   -0.076390
    C   -1.874219   -0.785852    0.042191
    C    0.059935    1.039558   -0.147667
    H   -0.023352    1.900082    0.512822
    H    0.303867    1.341363   -1.164503
    C    0.989115   -0.031236    0.428673
    H    1.125757   -0.121011    1.508357

