%NProcShared=4
#p b3lyp/6-311++G(3df,2p) freq symmetry=Loose

 b3lyp opt

1 2
    H   -0.083746    1.474895   -0.423162
    H    0.515323   -1.242919    0.360106
    H   -1.096581   -0.285740    1.016542
    C   -0.091483   -0.390752    0.630730
    F    0.018321    0.543773   -0.606398

