%NProcShared=1
#p b3lyp/6-311++G(3df,2p) freq symmetry=Loose

 b3lyp opt

1 2
H  1.326430025 -0.337083877 -0.050994753
H -0.793747701  0.043830912 -0.356047608
H  0.157911469 -0.040129829 -0.006070924
H -0.690593793  0.333382794  0.413113286

