%NProcShared=2
#p b3lyp/6-311++G(3df,2p) freq

 b3lyp opt

1 2
C -0.399901563  0.168907375  0.117405000
H -1.358890314  0.643783234 -0.212744160
H  0.175462440 -0.075857968  1.046496580
H -0.690180954 -0.883904558 -0.130566536
H  0.274002578  0.991608792 -0.233565884

