%NProcShared=2
#p b3lyp/6-311++G(3df,2p) freq

 b3lyp opt

0 1
C -0.308604875 -0.391562250  0.035757250
H -1.096396818 -1.050205274 -0.324241270
H -0.512167737  0.627496668 -0.286898596
H -0.274042854 -0.427792022  1.122734059
H  0.648187909 -0.715748373 -0.368565193

