%NProcShared=4
#p b3lyp/6-311++G(3df,2p) freq symmetry=Loose

 b3lyp opt

0 3
    C    1.533597   -0.375861    0.000137
    H    2.161739   -0.225178   -0.881540
    H    1.187852   -1.406746    0.005238
    H    2.167519   -0.217656    0.876077
    C    0.383948    0.587771   -0.000274
    H    0.602522    1.652068    0.000111
    C   -0.920217    0.238850    0.000261
    C   -2.017267   -0.417841   -0.000105

