%NProcShared=4
#p b3lyp/6-311++G(3df,2p) freq symmetry=Loose

 b3lyp opt

0 1
    C   -2.094593   -0.000537   -0.281705
    C   -0.834670    0.000616   -0.026712
    C    1.370852   -0.000730   -0.506494
    H    2.400887   -0.000564   -0.168036
    H    1.235679   -0.001384   -1.581303
    C    0.393006   -0.735449    0.363592
    H    0.497412   -1.470222    1.142680
    C    0.393347    0.736122    0.362378
    H    0.498365    1.472038    1.140306

