%NProcShared=4
#p b3lyp/6-311++G(3df,2p) freq symmetry=Loose

 b3lyp opt

3 2
    C    2.217346   -0.216406   -0.000375
    H    2.240514   -1.364012    0.497946
    H    2.241974   -1.365106   -0.496052
    H    3.210475    0.250983   -0.000409
    C    1.027645    0.485401   -0.000872
    H    1.122183    1.605705   -0.001665
    C   -0.303590    0.114090   -0.000472
    C   -1.571584   -0.055886    0.000002
    C   -2.840426   -0.181166    0.001840

