%NProcShared=4
#p b3lyp/6-311++G(3df,2p) freq symmetry=Loose

 b3lyp opt

3 2
    C   -2.343689   -0.023723    0.029529
    C    0.221233    0.542965   -0.021071
    H   -2.975862    0.055834   -0.905058
    H   -2.910114    0.035899    1.005801
    H    0.103365    1.639075   -0.020177
    C    2.720889   -0.258262    0.035851
    C    1.477390    0.015644   -0.013692
    C   -0.970072   -0.323705   -0.030559
    H   -0.855486   -1.448400   -0.076032

