%NProcShared=4
#p b3lyp/6-311++G(3df,2p) freq symmetry=Loose

 b3lyp opt

2 3
    C    0.544872   -0.104816   -0.000127
    C    1.881673   -0.468405    0.001227
    C    1.548139    0.848748   -0.000931
    C   -1.943165    0.422342    0.000539
    H   -2.972528    0.052176    0.000336
    H   -1.801896    1.506329    0.001804
    C   -0.877180   -0.537651   -0.000639
    H   -1.076026   -1.260660    0.832291
    H   -1.075587   -1.259146   -0.834839

