%NProcShared=4
#p b3lyp/6-311++G(3df,2p) freq symmetry=Loose

 b3lyp opt

0 3
    C    1.426349   -0.637708    0.003155
    C    1.218054    0.831198   -0.001649
    H    2.136928   -1.445861    0.007762
    H    1.410428    1.396926   -0.912062
    H    1.406064    1.401464    0.906891
    C    0.152727   -0.218471   -0.001256
    C   -1.205075   -0.489256   -0.004403
    H   -1.491850   -1.546135   -0.003751
    C   -2.168985    0.546504    0.004347

