%NProcShared=1
#p b3lyp/6-311++G(3df,2p) freq symmetry=Loose

 b3lyp opt

1 4
C -0.470797997  0.228183957  0.788282199
C  0.769731008  0.469068885  0.000421340
H  1.143694016  1.502563784  0.001448276
H -2.525926985  0.195025797  0.000384307
C  1.771999985 -0.555295798 -0.000697574
H  2.853564961 -0.572234461 -0.000794463
C -0.470913997  0.229791957 -0.787746801
C -1.561737000 -0.322962005 -0.000215155
H -1.701027995 -1.418073071 -0.001322230

