%NProcShared=4
#p b3lyp/6-311++G(3df,2p) freq IOp(2/17=3) IOp(2/18=3)

 b3lyp opt

2 3
C  0.424579999  0.000003877  0.412445001
C -0.786486747  0.767750917  0.037368581
C -1.838838998  0.000088247 -0.284252001
C -0.786564243 -0.767653067  0.037434411
H  0.652121008  0.000039760  1.517235993
C  1.753530988 -0.000092507 -0.271142990
H  2.773905012 -0.000119654  0.296898989
H  1.988271236 -1.005953879 -0.702584377
H  1.988372770  1.005708164 -0.702670627

