%NProcShared=4
#p b3lyp/6-311++G(3df,2p) freq symmetry=Loose

 b3lyp opt

0 1
    C    1.401180    1.067782    0.000000
    C    0.000000    0.910376    0.000000
    C    0.878959   -0.243300    0.000000
    C   -0.312347   -1.199741    0.000000
    H   -0.326590   -1.835786   -0.882945
    H   -0.326590   -1.835786    0.882945
    C   -1.239797    0.018647    0.000000
    H   -1.857396    0.174496   -0.882450
    H   -1.857396    0.174496    0.882450

