%NProcShared=4
#p b3lyp/6-311++G(3df,2p) freq symmetry=Loose

 b3lyp opt

1 3
    C    0.166386    0.000000    0.000000
    H   -0.975414    0.000000    0.000000

