%NProcShared=4
#p b3lyp/6-311++G(3df,2p) freq symmetry=Loose

 b3lyp opt

1 3
    H   -0.000209    1.576368    0.000000
    C    0.000017    0.492927    0.000000
    C    0.000017   -0.755655    0.000000

