%NProcShared=4
#p b3lyp/6-311++G(3df,2p) freq symmetry=Loose

 b3lyp opt

1 1
    H    0.517838    1.479991    0.000000
    C   -0.043153    0.541989    0.000000
    C   -0.043153   -0.788654    0.000000

