%NProcShared=4
#p b3lyp/6-311++G(3df,2p) freq symmetry=Loose

 b3lyp opt

0 2
    H    0.000000    0.000000    1.023106
    C    0.000000    0.634100   -0.085259
    C    0.000000   -0.634100   -0.085259

