%NProcShared=4
#p b3lyp/6-311++G(3df,2p) freq symmetry=Loose

 b3lyp opt

3 3
    H   -0.000195   -2.430424    0.000000
    C    0.000067   -1.232165    0.000000
    C   -0.000034    1.493231    0.000000
    C    0.000000    0.144005    0.000000

