%NProcShared=4
#p b3lyp/6-311++G(3df,2p) freq symmetry=Loose

 b3lyp opt

1 3
    H    0.000084   -1.783505    0.000000
    C    0.000000   -0.697774    0.000000
    C    0.679892    0.497511    0.000000
    C   -0.679906    0.497514    0.000000

