%NProcShared=4
#p b3lyp/6-311++G(3df,2p) freq symmetry=Loose

 b3lyp opt

1 1
    H    0.000000    0.000000    1.448151
    C    0.000000    0.000000    0.334635
    C    0.000000    1.201987   -0.287997
    C    0.000000   -1.201987   -0.287997

