%NProcShared=4
#p b3lyp/6-311++G(3df,2p) freq symmetry=Loose

 b3lyp opt

0 2
    C   -0.000000   -0.007994   -1.408572
    C    0.000000    0.028822   -0.084747
    C   -0.000000   -0.026196    1.160594
    H   -0.000000    0.305369    2.175221

