%NProcShared=4
#p b3lyp/6-311++G(3df,2p) freq symmetry=Loose

 b3lyp opt

1 1
    C   -1.424252    0.000168    0.000001
    C   -0.086835   -0.000304    0.000004
    C    1.140849    0.000083   -0.000011
    H    2.221427    0.000318    0.000036

