%NProcShared=4
#p b3lyp/6-311++G(3df,2p) freq symmetry=Loose

 b3lyp opt

0 4
    H   -1.630013   -0.001297   -0.558901
    C   -0.800754   -0.000716    0.150927
    C    0.537301   -0.653608   -0.028899
    C    0.535121    0.654540   -0.028878

