%NProcShared=1
#p b3lyp/6-311++G(3df,2p) freq symmetry=Loose

 b3lyp opt

0 2
H  1.259186000 -1.556995000 -0.000341000
C  0.883602000 -0.548971000  0.000188000
C -0.374574124  0.076881861 -0.000202488
C  0.966679141  0.781890037  0.001292498
C -1.685572017 -0.050301899 -0.001222009

