%NProcShared=4
#p b3lyp/6-311++G(3df,2p) freq symmetry=Loose

 b3lyp opt

2 2
    H    2.936722    0.000359   -0.000007
    C    1.833749   -0.000330   -0.000005
    C    0.551818    0.000373   -0.000007
    C   -0.717727    0.000261    0.000003
    C   -2.157292   -0.000290    0.000002

