%NProcShared=4
#p b3lyp/6-311++G(3df,2p) freq symmetry=Loose

 b3lyp opt

3 1
    H    1.642487   -0.803186    0.000000
    C    0.478409   -0.614328   -0.000000
    C   -0.000020    0.585275   -0.000000
    C   -0.503164    2.172658    0.000000
    C   -0.248725   -2.009222    0.000000

