%NProcShared=4
#p b3lyp/6-311++G(3df,2p) freq symmetry=Loose

 b3lyp opt

0 2
    C   -0.192169   -0.758834    0.000000
    H   -0.055216   -1.832659    0.000000
    C    0.585709    0.639054    0.000000
    C   -0.192169    0.212612    1.085579
    C   -0.192169    0.212612   -1.085579

