%NProcShared=4
#p b3lyp/6-311++G(3df,2p) freq symmetry=Loose

 b3lyp opt

1 3
    C    0.183221    0.880687    0.000000
    H    0.040354    1.956905    0.000000
    C   -0.556390   -0.857025    0.000000
    C    0.183221   -0.174907    0.948446
    C    0.183221   -0.174907   -0.948446

