%NProcShared=4
#p b3lyp/6-311++G(3df,2p) freq symmetry=Loose

 b3lyp opt

3 3
    C   -2.107310   -0.000063   -0.000092
    C   -0.768558    0.000171   -0.000274
    C    0.518502   -0.000346    0.000478
    C    1.856213    0.000470    0.000276
    H    3.006828    0.000518   -0.000708

