%NProcShared=4
#p b3lyp/6-311++G(3df,2p) freq symmetry=Loose

 b3lyp opt

2 2
    H   -1.521038    1.489604   -0.000424
    C   -0.999402    0.517485    0.000045
    C    0.312602   -0.076266    0.000361
    C   -0.824613   -0.824677   -0.000161
    C    1.764920    0.135191   -0.000174

