%NProcShared=4
#p b3lyp/6-311++G(3df,2p) freq symmetry=Loose

 b3lyp opt

2 2
    H    1.398911   -1.092917    0.000000
    C    0.349574   -0.696616    0.000000
    C    0.000000    0.584821    0.000000
    C    0.157307    1.963901    0.000000
    C   -0.740034   -1.669953    0.000000

