%NProcShared=4
#p b3lyp/6-311++G(3df,2p) freq symmetry=Loose

 b3lyp opt

1 1
    H    1.104866    1.654349   -0.000162
    C    0.821922    0.606403    0.000039
    C   -0.324827   -0.172038    0.000076
    C    0.994344   -0.767344   -0.000047
    C   -1.675584    0.057254   -0.000041

