%NProcShared=4
#p b3lyp/6-311++G(3df,2p) freq symmetry=Loose

 b3lyp opt

0 4
    C    0.997911    0.000166    0.131208
    H    2.061266   -0.001912   -0.029096
    C   -1.141641    0.000095    0.128211
    C   -0.100250   -0.882534   -0.127264
    C   -0.099564    0.882593   -0.127305

