%NProcShared=4
#p b3lyp/6-311++G(3df,2p) freq symmetry=Loose

 b3lyp opt

1 1
    H    0.000000    0.000000   -2.152779
    C    0.000000    0.000000   -1.067102
    C    0.000000    0.788381    0.054573
    C    0.000000    0.000000    1.316752
    C    0.000000   -0.788381    0.054573

