%NProcShared=4
#p b3lyp/6-311++G(3df,2p) freq symmetry=Loose

 b3lyp opt

1 1
    H   -0.000347   -1.819137   -0.000138
    C   -0.000340   -0.727299   -0.000979
    C    0.000237    0.696034    0.000350
    C    1.281557    0.166934    0.000047
    C   -1.281445    0.167512    0.000048

