%NProcShared=4
#p b3lyp/6-311++G(3df,2p) freq symmetry=Loose

 b3lyp opt

2 4
    H    1.549633   -0.868311    0.000000
    C    0.450305   -0.588836    0.000000
    C    0.000000    0.666835    0.000000
    C   -0.441390    1.866246    0.000000
    C   -0.267188   -1.799526    0.000000

