%NProcShared=4
#p b3lyp/6-311++G(3df,2p) freq symmetry=Loose

 b3lyp opt

3 3
    C    0.000497    0.844054    0.000001
    H    0.001970    2.034158   -0.000000
    C    0.000246   -0.892121   -0.000000
    C   -0.000664   -0.145466    1.150113
    C   -0.000664   -0.145466   -1.150113

