%NProcShared=4
#p b3lyp/6-311++G(3df,2p) freq symmetry=Loose

 b3lyp opt

3 1
    C   -2.345974   -0.000564    0.000019
    C   -0.668147    0.000131   -0.000176
    C    0.595544    0.001188    0.000237
    C    1.909480   -0.000317   -0.000025
    H    3.055875   -0.001584   -0.000325

