%NProcShared=4
#p b3lyp/6-311++G(3df,2p) freq symmetry=Loose

 b3lyp opt

1 3
    H    1.134144   -1.747253    0.000000
    C    0.282163   -1.079378    0.000000
    C    0.000000    0.366791    0.000000
    C    0.476426    1.649467    0.000000
    C   -0.947613   -0.645671    0.000000

