%NProcShared=4
#p b3lyp/6-311++G(3df,2p) freq symmetry=Loose

 b3lyp opt

2 2
    H   -0.017431    2.625872    0.000000
    C   -0.009440    1.519932    0.000000
    C    0.000000    0.200279    0.000000
    C   -0.695845   -1.081716    0.000000
    C    0.708191   -1.076141    0.000000

