%NProcShared=4
#p b3lyp/6-311++G(3df,2p) freq symmetry=Loose

 b3lyp opt

0 4
    H    1.551461   -0.814743    0.000000
    C    0.475898   -0.617270    0.000000
    C    0.000000    0.638590    0.000000
    C   -0.378247    1.873195    0.000000
    C   -0.356228   -1.758724    0.000000

