%NProcShared=4
#p b3lyp/6-311++G(3df,2p) freq symmetry=Loose

 b3lyp opt

3 1
    C   -0.012808   -1.372123    0.000000
    C    0.023632    2.527593    0.000000
    C    0.011029    1.222885    0.000000
    C   -0.001077   -0.080016    0.000000
    C   -0.026347   -2.907912   -0.000000
    H    0.034655    3.655779   -0.000000

