%NProcShared=1
#p b3lyp/6-311++G(3df,2p) freq symmetry=Loose

 b3lyp opt

3 1
C -2.508835000 -0.623955000  0.000272000
C -1.303056000  0.433429000 -0.000301000
C  0.027154001  0.165910088 -0.000169572
C  1.278762002 -0.031044848 -0.000075065
C  2.787573996 -0.195293235 -0.000000103
H -1.685844001  1.504488954 -0.000868128

