%NProcShared=4
#p b3lyp/6-311++G(3df,2p) freq symmetry=Loose

 b3lyp opt

0 2
    H    0.000093   -3.229299    0.000000
    C    0.000238   -2.166045    0.000000
    C    0.000192   -0.960979    0.000000
    C    0.000000    0.413865    0.000000
    C   -0.676180    1.625515    0.000000
    C    0.675735    1.625860    0.000000

