%NProcShared=4
#p b3lyp/6-311++G(3df,2p) freq symmetry=Loose

 b3lyp opt

1 3
    H    0.000000    0.000000    1.754484
    C    0.000000    0.000000    0.663767
    C    0.000000    1.208790    0.013259
    C    0.000000    2.315481   -0.491349
    C    0.000000   -1.208790    0.013259
    C    0.000000   -2.315481   -0.491349

