%NProcShared=4
#p b3lyp/6-311++G(3df,2p) freq symmetry=Loose

 b3lyp opt

2 4
    H    0.000000    0.000000   -3.538177
    C    0.000000    0.000000   -2.446851
    C    0.000000    0.000000   -1.175083
    C    0.000000    0.000000    0.117790
    C    0.000000    0.000000    1.404633
    C    0.000000    0.000000    2.689208

