%NProcShared=4
#p b3lyp/6-311++G(3df,2p) freq symmetry=Loose

 b3lyp opt

1 3
    C    1.970512   -0.025989   -0.170710
    C   -1.462491    0.174983   -0.368371
    C   -0.464755    0.886763    0.310061
    C    0.654248    0.066430    0.070164
    C   -0.579117   -0.809112    0.062188
    H   -0.709236   -1.758243    0.578996

