%NProcShared=4
#p b3lyp/6-311++G(3df,2p) freq symmetry=Loose

 b3lyp opt

1 4
    H    0.710313    1.164367   -0.018348
    C   -0.766595   -0.246266   -0.137717
    F    0.597924    0.201173   -0.004016

