%NProcShared=4
#p b3lyp/6-311++G(3df,2p) freq symmetry=Loose

 b3lyp opt

0 1
    H   -0.512624    1.006935    0.082118
    C   -0.116919   -0.040875    0.012805
    F    1.171185    0.153214   -0.094923

