%NProcShared=4
#p b3lyp/6-311++G(3df,2p) freq symmetry=Loose

 b3lyp opt

1 2
    H    0.749476    1.196107    0.028768
    C   -0.838211   -0.322001    0.039311
    F    0.630377    0.245168   -0.068728

