#p b3lyp/6-311++G(3df,2p) freq

 b3lyp opt

1 2
 c
 f   1 fc2     
 h    1 hc3         2 hcf3      
 
fc2         1.199622
hc3         1.116101
hcf3        124.542
 
 
