%NProcShared=1
#p b3lyp/6-311++G(3df,2p) freq symmetry=Loose

 b3lyp opt

1 1
H  0.177187629 -0.023865850 -1.415160510
C  0.047625531  0.002609654 -0.326985041
F  0.792412630 -0.637780924  0.415089111
F -0.846832630  0.673584924  0.188008889

