%NProcShared=4
#p b3lyp/6-311++G(3df,2p) freq symmetry=Loose

 b3lyp opt

1 3
    H   -0.740994    0.517662    1.246562
    C   -0.149417    0.504003    0.327142
    F   -0.663883   -0.159980   -0.762499
    F    0.946700   -0.326938    0.276141

