%NProcShared=1
#p b3lyp/6-311++G(3df,2p) freq symmetry=Loose

 b3lyp opt

0 2
H -0.654381328  0.994832539  0.613284373
C -0.223862963  0.010675676  0.442710255
F  1.102631273 -0.013904028  0.460643589
F -0.701644700 -0.614952111 -0.625384875

