%NProcShared=2
#p b3lyp/6-311++G(3df,2p) freq

 b3lyp opt

1 3
    C   -0.129218    0.654268   -0.371856
    F    1.026445    1.065336   -0.154336
    F   -0.429333   -0.803780    0.077309
    H   -0.510237   -1.436738   -0.641939

