%NProcShared=4
#p b3lyp/6-311++G(3df,2p) freq symmetry=Loose

 b3lyp opt

1 3
    H   -0.429346    0.675248    1.164800
    C   -0.002794    0.393110   -0.077926
    F   -0.980977   -0.355391   -0.410211
    F    1.147873   -0.048821    0.251002

