%NProcShared=1
#p b3lyp/6-311++G(3df,2p) freq symmetry=Loose

 b3lyp opt

1 2
C -0.103255631  0.079235296  0.065417548
F -1.252141117 -0.350609902 -0.294311057
F  0.049475360  1.347381241  0.116295163
F  0.527087456 -0.614207453  0.934850795
H  0.614742287 -0.205085362 -1.034867689

