%NProcShared=4
#p b3lyp/6-311++G(3df,2p) freq symmetry=Loose

 b3lyp opt

1 2
    H    1.006211    0.000000    0.000000
    F   -0.005804    0.000000    0.000000

