%NProcShared=4
#p b3lyp/6-311++G(3df,2p) freq symmetry=Loose

 b3lyp opt

1 1
    H    0.508265    1.095334   -0.027319
    F   -0.938959   -0.163265    0.008351
    F    0.460668    0.109757   -0.006755

