%NProcShared=4
#p b3lyp/6-311++G(3df,2p) freq IOp(2/17=3) IOp(2/18=3)

 b3lyp opt

0 1
    C   -0.155666   -0.079194    0.000000
    C   -1.518255    0.124331   -0.000000
    O    1.004833   -0.251824    0.000000

