%NProcShared=4
#p b3lyp/6-311++G(3df,2p) freq IOp(2/17=3) IOp(2/18=3)

 b3lyp opt

0 1
    C    0.240225    0.870643    0.000000
    C    0.820217   -0.503169    0.000000
    O   -0.497422   -0.250126    0.000000

