%NProcShared=4
#p b3lyp/6-311++G(3df,2p) freq IOp(2/17=3) IOp(2/18=3)

 b3lyp opt

1 4
    C    1.269251    0.632627    0.000000
    C    0.106473   -0.046889   -0.000000
    O   -0.877982   -0.622971   -0.000000

