%NProcShared=4
#p b3lyp/6-311++G(3df,2p) freq IOp(2/17=3) IOp(2/18=3)

 b3lyp opt

0 3
    C   -0.119305   -0.004998    0.000000
    C   -1.488732   -0.058162   -0.000000
    O    1.045571    0.039985    0.000000

