%NProcShared=4
#p b3lyp/6-311++G(3df,2p) freq IOp(2/17=3) IOp(2/18=3)

 b3lyp opt

1 2
C -0.164720000  0.112766000 -0.980263000
C  0.472551000 -0.073359000  1.583415000
O  0.096914000  0.014112000  0.160634000

