%NProcShared=4
#p b3lyp/6-311++G(3df,2p) freq IOp(2/17=3) IOp(2/18=3)

 b3lyp opt

1 2
    C    1.890118   -0.476637   -0.061444
    C    0.733350   -0.121345   -0.033167
    C   -0.543668    0.270540   -0.001957
    O   -1.614870    0.599635    0.023671

