%NProcShared=4
#p b3lyp/6-311++G(3df,2p) freq IOp(2/17=3) IOp(2/18=3)

 b3lyp opt

0 3
    C    0.736903   -0.099521    0.130641
    C    1.866181   -0.626775    0.207339
    C   -0.590640   -0.095398   -0.246797
    O   -1.564775    0.560026   -0.219397

