%NProcShared=4
#p b3lyp/6-311++G(3df,2p) freq IOp(2/17=3) IOp(2/18=3)

 b3lyp opt

1 2
    C    0.967440   -0.726367    0.323525
    C   -0.086175    0.399390    0.130301
    C   -0.398484    1.647130   -0.206824
    O   -0.170024   -0.938284   -0.205197

