%NProcShared=4
#p b3lyp/6-311++G(3df,2p) freq IOp(2/17=3) IOp(2/18=3)

 b3lyp opt

0 1
    C    0.054692   -0.607199    0.027332
    C    0.215689    0.672022   -0.081492
    C    0.373205    1.923867   -0.187797
    O   -0.087974   -1.741580    0.123483

