%NProcShared=4
#p b3lyp/6-311++G(3df,2p) freq IOp(2/17=3) IOp(2/18=3)

 b3lyp opt

1 4
    C    1.057029   -0.815013   -0.097839
    C    1.210573    0.601225    0.022743
    C   -0.130724    0.024452    0.030001
    O   -1.323671    0.148378    0.093790

