%NProcShared=4
#p b3lyp/6-311++G(3df,2p) freq IOp(2/17=3) IOp(2/18=3)

 b3lyp opt

0 1
    C   -0.221786    1.150295    0.031260
    C    1.340770   -1.082167    0.022712
    C    0.447849   -0.160812    0.013405
    O   -0.993681    0.151190   -0.048673

