%NProcShared=4
#p b3lyp/6-311++G(3df,2p) freq IOp(2/17=3) IOp(2/18=3)

 b3lyp opt

0 1
    C    0.008528    1.768506    0.042969
    C    0.282488   -1.940308   -0.022557
    C    0.189336   -0.689983   -0.000334
    O    0.094107    0.603174    0.022488

