%NProcShared=4
#p b3lyp/6-311++G(3df,2p) freq IOp(2/17=3) IOp(2/18=3)

 b3lyp opt

0 1
    O    1.845159   -1.283929    0.005785
    C    0.469370    0.858552   -0.026196
    C    0.821341   -0.665696    0.004767
    C   -0.956225    0.323633    0.005188
    C   -0.635272   -0.980826    0.031106
    H    0.772361    1.382992   -0.933786
    H    0.795944    1.424627    0.847574
    H   -1.906386    0.837845    0.005794
    H   -1.206492   -1.897398    0.059895

