%NProcShared=4
#p b3lyp/6-311++G(3df,2p) freq IOp(2/17=3) IOp(2/18=3)

 b3lyp opt

0 1
    C    2.148159   -0.403399   -0.000000
    C   -1.415829    0.241899    0.000000
    O   -1.596345   -0.950200    0.000000
    C   -0.096054    0.916784    0.000000
    C    1.039769    0.263842   -0.000000
    H    2.627155   -0.696059   -0.926683
    H   -2.274284    0.942084   -0.000000
    H   -0.099474    2.001847   -0.000000
    H    2.627155   -0.696060    0.926683

