%NProcShared=4
#p b3lyp/6-311++G(3df,2p) freq IOp(2/17=3) IOp(2/18=3)

 b3lyp opt

0 1
    O    0.064814   -0.487858    0.000453
    C    1.079753    0.464859    0.000028
    C    2.345000    0.091405    0.000048
    C   -1.165554   -0.069274    0.000412
    C   -2.315086    0.264982    0.000395
    H    0.724164    1.485896   -0.000300
    H    3.118260    0.843169   -0.000285
    H    2.631713   -0.950023    0.000390
    H   -3.333862    0.558145    0.000382

