%NProcShared=4
#p b3lyp/6-311++G(3df,2p) freq IOp(2/17=3) IOp(2/18=3)

 b3lyp opt

1 2
    O   -2.562967    1.063890    0.320134
    C    1.788524    0.015429   -0.000994
    C    0.367595   -0.051885   -0.015591
    C   -0.852488   -0.176703   -0.048064
    C   -2.254908   -0.072981   -0.013191
    H    2.149487    0.212547    1.013219
    H    2.137301    0.804109   -0.675555
    H    2.212655   -0.938473   -0.340224
    H   -2.985298   -0.855935   -0.239735

