%NProcShared=4
#p b3lyp/6-311++G(3df,2p) freq IOp(2/17=3) IOp(2/18=3)

 b3lyp opt

0 1
    C    0.655916   -0.278031    0.062635
    C   -0.700189    0.144644   -0.090464
    C   -1.970476   -0.108656   -0.289817
    C    1.572931   -1.213097    0.110154
    O    0.316006    1.070861    0.131403

