%NProcShared=4
#p b3lyp/6-311++G(3df,2p) freq IOp(2/17=3) IOp(2/18=3)

 b3lyp opt

0 1
    C   -0.927587    0.319725    0.136501
    C   -0.750835    1.588660   -0.471637
    C    0.291062   -0.488153    0.197009
    C    0.444530    0.826882   -0.426357
    O    0.795641   -1.493911    0.520756

