%NProcShared=4
#p b3lyp/6-311++G(3df,2p) freq IOp(2/17=3) IOp(2/18=3)

 b3lyp opt

0 1
    C    0.098195   -0.162204   -0.836067
    C    0.263697    0.159322    0.787796
    C    1.376966   -0.124628   -0.121649
    C   -0.600960    1.025929   -0.147829
    O   -0.831906   -0.619440    0.201449

