%NProcShared=4
#p b3lyp/6-311++G(3df,2p) freq IOp(2/17=3) IOp(2/18=3)

 b3lyp opt

0 1
C  1.474666000  0.415828000 -0.564308000
C  0.429059000 -0.066385000  0.039863000
H  0.960923984 -0.341624332  0.979351209
H -1.264453502 -0.695860127  0.655425603
O -0.888325343 -0.285888721 -0.128415738

