%NProcShared=4
#p b3lyp/6-311++G(3df,2p) freq IOp(2/17=3) IOp(2/18=3)

 b3lyp opt

1 4
    C    1.368292   -0.417334    0.327286
    C    0.165312    0.255467    0.029221
    H    2.419062   -0.164718    0.389181
    H   -1.146432   -1.175577    0.215818
    O   -0.977731   -0.219751    0.009382

