%NProcShared=4
#p b3lyp/6-311++G(3df,2p) freq IOp(2/17=3) IOp(2/18=3)

 b3lyp opt

0 1
    C    1.264048   -0.126216   -0.277130
    C    0.088793    0.013837   -0.100194
    H    2.305358   -0.243689   -0.436652
    H   -1.545471    0.942104   -0.158748
    O   -1.196229    0.088996    0.125630

