%NProcShared=4
#p b3lyp/6-311++G(3df,2p) freq IOp(2/17=3) IOp(2/18=3)

 b3lyp opt

1 4
    C    0.802092   -0.524117    0.422936
    C    0.069601    0.538027   -0.050509
    H    1.856008   -0.383637    0.688660
    H    0.370623   -1.526298    0.549383
    O   -1.179641    0.373429   -0.365917

