%NProcShared=4
#p b3lyp/6-311++G(3df,2p) freq IOp(2/17=3) IOp(2/18=3)

 b3lyp opt

1 2
    C    1.559583    0.958723   -0.007218
    C   -0.564532   -0.087379    0.151959
    C    0.204721    0.962886   -0.255916
    C   -1.275171   -1.015211    0.506652
    H   -1.900139   -1.826953    0.816193
    H   -0.190906    1.830562   -0.780533
    O    2.666832    0.968812    0.189028

