%NProcShared=4
#p b3lyp/6-311++G(3df,2p) freq IOp(2/17=3) IOp(2/18=3)

 b3lyp opt

1 4
    C    0.263833    0.628765   -0.324925
    H    0.829574    0.315283   -1.231153
    H   -0.196863    1.640287   -0.389413
    O   -0.766182   -0.336384   -0.061532

