%NProcShared=4
#p b3lyp/6-311++G(3df,2p) freq IOp(2/17=3) IOp(2/18=3)

 b3lyp opt

0 1
    C    1.046207    0.103038   -0.018873
    H   -0.761831   -0.949050   -0.502660
    H   -0.963908    0.668130   -0.519561
    O   -0.326103   -0.071959   -0.372706

