%NProcShared=4
#p b3lyp/6-311++G(3df,2p) freq IOp(2/17=3) IOp(2/18=3)

 b3lyp opt

1 2
    C    0.444366    0.211794   -0.449015
    H    0.801788    1.137088   -0.930465
    H   -0.601746    0.761240    1.081045
    O   -0.238472    0.017443    0.529191

