%NProcShared=4
#p b3lyp/6-311++G(3df,2p) freq IOp(2/17=3) IOp(2/18=3)

 b3lyp opt

1 4
    C    0.819166    0.128001    0.070790
    H    1.015109    1.005943    0.701173
    H   -0.850250   -0.954911    0.719821
    O   -0.626888   -0.243323    0.049581

