%NProcShared=4
#p b3lyp/6-311++G(3df,2p) freq IOp(2/17=3) IOp(2/18=3)

 b3lyp opt

0 3
    C    0.439381   -0.166329   -0.350993
    H    0.768779   -1.213671   -0.306550
    H    0.461635    0.265901   -1.360974
    O   -0.652002    0.077445    0.308966

