%NProcShared=4
#p b3lyp/6-311++G(3df,2p) freq IOp(2/17=3) IOp(2/18=3)

 b3lyp opt

1 2
    C    0.931251   -0.254281    0.313143
    H   -0.315680    0.621833   -1.115091
    H   -0.663246    1.086507    0.461222
    O   -0.098784    0.549207   -0.150897

