%NProcShared=4
#p b3lyp/6-311++G(3df,2p) freq IOp(2/17=3) IOp(2/18=3)

 b3lyp opt

0 1
    H    0.653499    0.803982    0.000000
    H    1.196676   -0.622393    0.000000
    O    0.379433   -0.116999    0.000000

