%NProcShared=4
#p b3lyp/6-311++G(3df,2p) freq IOp(2/17=3) IOp(2/18=3)

 b3lyp opt

1 2
    H   -0.696767    0.845401    0.000000
    H   -1.011373   -0.768374    0.000000
    O   -0.287351   -0.071969    0.000000

