%NProcShared=4
#p b3lyp/6-311++G(3df,2p) freq IOp(2/17=3) IOp(2/18=3)

 b3lyp opt

0 2
    C    0.072057   -0.039353   -0.076941
    C    0.867662   -1.060051   -0.301505
    H    0.710766   -1.715368   -1.154772
    H    1.707354   -1.256709    0.347118
    H   -1.142085    1.263198   -0.733680
    O   -1.087817    0.306616   -0.629936

