%NProcShared=4
#p b3lyp/6-311++G(3df,2p) freq IOp(2/17=3) IOp(2/18=3)

 b3lyp opt

1 3
    C    0.055862   -0.102027   -0.553329
    C    0.947636   -1.131785   -0.245224
    H    1.976327   -1.062422   -0.574645
    H    0.607608   -1.996543    0.322122
    H   -1.630597    0.788274   -0.560163
    O   -1.158324   -0.015692   -0.256201

