%NProcShared=4
#p b3lyp/6-311++G(3df,2p) freq IOp(2/17=3) IOp(2/18=3)

 b3lyp opt

1 1
    C   -1.162392    0.948515   -0.327051
    C    0.549375   -0.717494    0.375479
    H    1.133147   -0.474996    1.255066
    H   -0.871244    1.712889   -1.067388
    O   -0.225052    0.181064   -0.061053
    H    0.576144   -1.649947   -0.175063

