%NProcShared=4
#p b3lyp/6-311++G(3df,2p) freq IOp(2/17=3) IOp(2/18=3)

 b3lyp opt

1 1
    C   -1.585819   -0.675995    0.069385
    C    1.033865    0.017947   -0.560243
    O    1.742628   -0.011399    0.394754
    C   -0.453700    0.009676   -0.274077
    C   -1.584107    0.672685    0.116245
    H   -2.092374   -1.620054    0.209700
    H    1.351382    0.049624   -1.611718
    H   -2.088145    1.606051    0.321931

