%NProcShared=4
#p b3lyp/6-311++G(3df,2p) freq IOp(2/17=3) IOp(2/18=3)

 b3lyp opt

0 2
    C    0.725814    0.969777   -0.000298
    H   -2.063334   -0.847537    0.000341
    C    1.090244   -0.339331   -0.000102
    C   -1.111227   -0.352993    0.000190
    C   -0.691877    0.924060   -0.000249
    H    1.375853    1.826096   -0.000509
    H    2.045266   -0.833502   -0.000099
    O    0.002121   -1.157514    0.000060

