%NProcShared=4
#p b3lyp/6-311++G(3df,2p) freq IOp(2/17=3) IOp(2/18=3)

 b3lyp opt

1 1
    C    0.262906    0.664715   -0.384207
    C   -0.881482   -0.440115   -0.249147
    O   -0.911550    0.697116    0.501935
    C    0.410066   -1.021530   -0.102113
    C    1.354570   -0.167225    0.192466
    H    0.236082    1.215584   -1.316844
    H   -1.678383   -0.714523   -0.929729
    H    2.305545   -0.039908    0.680063

