%NProcShared=4
#p b3lyp/6-311++G(3df,2p) freq IOp(2/17=3) IOp(2/18=3)

 b3lyp opt

0 2
    C   -0.128341   -0.205121   -0.425033
    H   -0.496559    0.543584    0.288297
    H   -0.453031    0.134747   -1.427656
    H   -0.598719   -1.183827   -0.264201
    O    1.230110   -0.265535   -0.487321

