%NProcShared=4
#p b3lyp/6-311++G(3df,2p) freq IOp(2/17=3) IOp(2/18=3)

 b3lyp opt

0 1
    C   -0.097458    0.223055    0.488878
    C   -1.184350    0.222819   -0.273283
    H   -2.015471    0.864620   -0.026561
    H    0.929723   -1.076799   -0.471589
    H   -0.000083    0.848989    1.365922
    H   -1.276549   -0.405746   -1.150321
    O    1.025091   -0.523348    0.311182

