%NProcShared=4
#p b3lyp/6-311++G(3df,2p) freq IOp(2/17=3) IOp(2/18=3)

 b3lyp opt

1 4
    C   -1.661385    0.433111    0.594627
    C    0.379754    0.539212   -0.864147
    C   -0.963035   -0.011622   -0.502595
    H    1.218930   -1.216073   -0.325947
    H    0.681077    0.358789   -1.892485
    H    0.569896    1.556093   -0.541859
    H   -1.333111   -0.893910   -1.028333
    O    0.984466   -0.364170    0.083988

