%NProcShared=4
#p b3lyp/6-311++G(3df,2p) freq IOp(2/17=3) IOp(2/18=3)

 b3lyp opt

0 1
    C   -0.756409    0.188635    0.484527
    C    0.630686   -0.399076    0.459057
    C   -1.489263    0.993790   -0.206255
    H    1.587183    1.115787   -0.314946
    H    1.064077   -0.324968    1.462338
    H    0.566402   -1.458984    0.210430
    H   -1.436502   -0.070066    1.316309
    O    1.469658    0.181926   -0.513059

