%NProcShared=4
#p b3lyp/6-311++G(3df,2p) freq IOp(2/17=3) IOp(2/18=3)

 b3lyp opt

1 4
    C   -1.968957   -0.830509    0.219547
    C    0.378961    0.063615   -0.278645
    C   -0.582112   -0.562535    0.550675
    H    1.844269   -0.036686    0.985437
    H   -0.263633   -0.882259    1.543473
    H    0.157676    0.415333   -1.277748
    H   -2.617358   -0.668914   -0.629477
    O    1.614703    0.270328    0.090601

