%NProcShared=4
#p b3lyp/6-311++G(3df,2p) freq IOp(2/17=3) IOp(2/18=3)

 b3lyp opt

0 3
    C   -1.292425    0.825223   -0.019516
    C    0.892173   -0.201819    0.503642
    C   -0.594670   -0.435967    0.221532
    H    1.102079    0.430812    1.388893
    H   -0.670896   -1.107771   -0.636785
    H   -1.682858    1.617968    0.600841
    H   -1.023705   -0.954536    1.094247
    O    1.780667   -0.634707   -0.175734

