%NProcShared=4
#p b3lyp/6-311++G(3df,2p) freq IOp(2/17=3) IOp(2/18=3)

 b3lyp opt

0 1
    C   -0.247317    0.998615   -0.176702
    C    0.636410   -0.171210   -0.063013
    C   -0.498448   -0.461886   -0.598650
    H    2.005742   -1.440631    0.231358
    H   -0.054995    1.752244   -0.940390
    H   -0.742456    1.393514    0.710454
    H   -1.205545   -1.136392   -1.039611
    O    1.854645   -0.498087    0.372761

