%NProcShared=4
#p b3lyp/6-311++G(3df,2p) freq IOp(2/17=3) IOp(2/18=3)

 b3lyp opt

1 2
    C   -0.968993    0.683702    0.000000
    C    0.260808   -1.145323    0.000000
    O   -0.920061   -0.814656   -0.000000
    C    1.236155   -0.035557   -0.000000
    C    0.274116    1.127683   -0.000000
    H   -1.976941    1.058218    0.000000
    H    1.891640   -0.099114    0.877557
    H    1.891640   -0.099114   -0.877557
    H    0.573346    2.164137   -0.000000

