%NProcShared=4
#p b3lyp/6-311++G(3df,2p) freq IOp(2/17=3) IOp(2/18=3)

 b3lyp opt

0 1
    C   -0.352897    0.985595   -0.000000
    C   -0.082398   -1.507247   -0.639583
    O    0.088346    2.107347    0.000000
    C   -0.082398   -1.507247    0.639583
    C    0.472127   -0.245464   -0.000000
    H   -1.450479    0.800858    0.000000
    H   -0.260271   -1.986914    1.583766
    H   -0.260271   -1.986914   -1.583766
    H    1.543844   -0.060949   -0.000000

