%NProcShared=4
#p b3lyp/6-311++G(3df,2p) freq IOp(2/17=3) IOp(2/18=3)

 b3lyp opt

0 1
    O    2.046804   -0.945037    1.054034
    C    0.343121   -0.111613   -0.390422
    C   -1.167591   -0.161363   -0.544290
    C   -0.674465    1.015016   -0.448477
    C    0.947080   -0.471792    0.914138
    H    0.984421   -0.310722   -1.245827
    H   -1.996932   -0.829027   -0.684269
    H   -0.775922    2.084085   -0.447074
    H    0.293895   -0.268804    1.792248

