%NProcShared=4
#p b3lyp/6-311++G(3df,2p) freq IOp(2/17=3) IOp(2/18=3)

 b3lyp opt

0 2
    C   -0.067793   -0.313655    0.019415
    C   -0.236016    0.961751    0.079370
    H   -0.944381    1.635322    0.516266
    O    0.239072   -1.431955   -0.137391

