%NProcShared=4
#p b3lyp/6-311++G(3df,2p) freq IOp(2/17=3) IOp(2/18=3)

 b3lyp opt

1 1
    C    0.222794   -1.505299   -0.238686
    C   -0.021630    1.103109    0.208690
    H   -0.795173    1.216681    1.002684
    O   -0.067641   -0.443313    0.136128

