%NProcShared=4
#p b3lyp/6-311++G(3df,2p) freq IOp(2/17=3) IOp(2/18=3)

 b3lyp opt

0 2
    C   -0.353708   -0.251902    0.454478
    C   -0.530257    0.872259   -0.264868
    H   -0.692145   -1.011918    1.142155
    O    0.801226   -0.123606   -0.144153

