%NProcShared=4
#p b3lyp/6-311++G(3df,2p) freq IOp(2/17=3) IOp(2/18=3)

 b3lyp opt

1 1
    C   -0.889869    0.018784   -0.096325
    C    0.260430   -0.996598    0.271676
    H    1.154559    0.925554   -0.599481
    O    0.470495    0.267255   -0.279673

