%NProcShared=4
#p b3lyp/6-311++G(3df,2p) freq IOp(2/17=3) IOp(2/18=3)

 b3lyp opt

1 1
    C   -0.712332   -0.582054   -0.541245
    C   -0.311486    0.199908    0.618266
    H   -0.296896    0.778334    1.543347
    O    0.606977   -0.153201   -0.169015

