%NProcShared=4
#p b3lyp/6-311++G(3df,2p) freq IOp(2/17=3) IOp(2/18=3)

 b3lyp opt

0 4
    C   -0.302451    0.490156   -0.298535
    C    1.043720    0.978903   -0.459419
    H    0.270270   -0.798877    0.962450
    O   -0.549063   -0.482989    0.515645

