%NProcShared=4
#p b3lyp/6-311++G(3df,2p) freq IOp(2/17=3) IOp(2/18=3)

 b3lyp opt

0 4
    C   -0.878014   -0.371355   -0.283850
    C   -0.029422    0.621436    0.341780
    H    0.261972    0.765521    1.380489
    O    0.473999   -0.520360   -0.361093

