%NProcShared=4
#p b3lyp/6-311++G(3df,2p) freq IOp(2/17=3) IOp(2/18=3)

 b3lyp opt

1 3
    C    0.286391   -0.404035    0.288782
    C    1.601581   -0.659572    0.365650
    H   -0.979319    0.661873   -0.743470
    O   -0.816402    0.013492   -0.013297

