%NProcShared=4
#p b3lyp/6-311++G(3df,2p) freq IOp(2/17=3) IOp(2/18=3)

 b3lyp opt

0 4
    C   -0.594907    0.280383   -0.288746
    C    0.698210    0.551991    0.238158
    H    1.422804   -0.063169    0.769460
    O   -1.161659   -0.771203   -0.232771

