%NProcShared=4
#p b3lyp/6-311++G(3df,2p) freq IOp(2/17=3) IOp(2/18=3)

 b3lyp opt

0 4
    C   -1.084744    0.792402   -0.474249
    C    0.204724    0.478863    0.096425
    H    1.325756   -0.868928    0.791993
    O    0.435581   -0.768258    0.419591

