%NProcShared=4
#p b3lyp/6-311++G(3df,2p) freq IOp(2/17=3) IOp(2/18=3)

 b3lyp opt

1 1
    C   -0.747047    0.697494   -0.573082
    C    0.096661    0.010285    0.028081
    C   -1.653350    1.431080   -1.177232
    H    1.025640   -0.835021    1.488828
    O    0.969742   -0.686106    0.516869

