%NProcShared=4
#p b3lyp/6-311++G(3df,2p) freq IOp(2/17=3) IOp(2/18=3)

 b3lyp opt

1 1
    C   -0.234139   -0.005693   -0.362603
    C    0.718241    0.508571    0.416601
    C   -1.096494   -0.470697   -1.069233
    H   -1.864872   -0.885766   -1.696002
    O    1.519823    0.941944    1.071273

