%NProcShared=4
#p b3lyp/6-311++G(3df,2p) freq IOp(2/17=3) IOp(2/18=3)

 b3lyp opt

0 2
    C    0.523860    0.048069   -0.243243
    C   -1.870488   -1.090509   -0.224288
    C   -0.818341   -0.457211   -0.077375
    H    1.113556   -0.375341   -1.069714
    O    0.956462    0.893570    0.500586

