%NProcShared=4
#p b3lyp/6-311++G(3df,2p) freq IOp(2/17=3) IOp(2/18=3)

 b3lyp opt

1 1
    C   -0.972855   -2.409709   -0.471568
    C    0.601524    1.299604   -0.231792
    C    0.129194   -0.095422   -0.424940
    C   -0.454634   -1.186908   -0.391958
    H    1.452776    1.697593   -0.791572
    O   -0.076794    1.848631    0.585955

