%NProcShared=4
#p b3lyp/6-311++G(3df,2p) freq IOp(2/17=3) IOp(2/18=3)

 b3lyp opt

0 2
    C    1.071235    0.037656    0.000000
    H   -0.162312    1.492105    0.000000
    O   -0.105456    0.507756    0.000000

