%NProcShared=4
#p b3lyp/6-311++G(3df,2p) freq IOp(2/17=3) IOp(2/18=3)

 b3lyp opt

1 1
    C   -0.234483   -0.519400   -0.000000
    H   -0.610497   -1.562336   -0.000000
    O    0.140550    0.519060    0.000000

