%NProcShared=4
#p b3lyp/6-311++G(3df,2p) freq IOp(2/17=3) IOp(2/18=3)

 b3lyp opt

1 1
    C   -1.072658    0.334215    0.000000
    H    0.620935   -1.015605   -0.000000
    O   -0.167138   -0.387371   -0.000000

