%NProcShared=4
#p b3lyp/6-311++G(3df,2p) freq IOp(2/17=3) IOp(2/18=3)

 b3lyp opt

0 4
    C   -0.522632   -0.756999    0.000000
    H   -0.019608   -1.721829    0.000000
    O    0.272062    0.381236    0.000000

