%NProcShared=4
#p b3lyp/6-311++G(3df,2p) freq IOp(2/17=3) IOp(2/18=3)

 b3lyp opt

1 3
    C   -0.880403   -0.082475    0.000000
    H   -1.431796   -1.050606    0.000000
    O    0.382015   -0.124729    0.000000

