%NProcShared=4
#p b3lyp/6-311++G(3df,2p) freq IOp(2/17=3) IOp(2/18=3)

 b3lyp opt

0 2
    C   -0.793073   -0.237458    0.000000
    H   -1.170842   -1.295207    0.000000
    O    0.338885    0.063061    0.000000

