%NProcShared=4
#p b3lyp/6-311++G(3df,2p) freq IOp(2/17=3) IOp(2/18=3)

 b3lyp opt

0 2
    H   -0.845108    0.000000    0.000000
    O    0.128927    0.000000    0.000000

