%NProcShared=4
#p b3lyp/6-311++G(3df,2p) freq

 b3lyp opt

2 1
    S    0.957147   -0.026321   -0.000000
    C    1.833444    1.495748   -0.000000
    C    0.082385   -1.549268   -0.000000

