%NProcShared=4
#p b3lyp/6-311++G(3df,2p) freq

 b3lyp opt

2 3
    S    0.957198   -0.026466    0.000000
    C    1.799585    1.436986   -0.000000
    C    0.116192   -1.490362    0.000000

