%NProcShared=4
#p b3lyp/6-311++G(3df,2p) freq

 b3lyp opt

1 2
    S    0.957247   -0.026393   -0.000000
    C    1.797599    1.433537   -0.000000
    C    0.118130   -1.486985   -0.000000

