%NProcShared=4
#p b3lyp/6-311++G(3df,2p) freq

 b3lyp opt

0 1
    S    0.957324   -0.026424   -0.000000
    C    1.771577    1.388370   -0.000000
    C    0.144074   -1.441787   -0.000000

