%NProcShared=4
#p b3lyp/6-311++G(3df,2p) freq

 b3lyp opt

2 1
    S   -1.219899    0.150266   -0.042914
    S    0.998286    0.928646   -0.006939
    C    0.758627   -1.915729   -0.438954
    C    0.285625   -0.581861   -0.213212

