%NProcShared=4
#p b3lyp/6-311++G(3df,2p) freq

 b3lyp opt

1 4
    S   -1.425573    0.189412    0.079035
    S    1.226876    0.606885   -0.275875
    C    0.282137   -1.981289   -0.056976
    C    0.066290   -0.639637   -0.080196

