%NProcShared=4
#p b3lyp/6-311++G(3df,2p) freq

 b3lyp opt

1 4
    S   -1.698967   -0.188145   -0.000000
    S    1.498591   -0.214438    0.000000
    C   -0.100193   -0.201821   -0.000000

