%NProcShared=4
#p b3lyp/6-311++G(3df,2p) freq

 b3lyp opt

0 3
    S   -1.697251   -0.188160   -0.000000
    S    1.496874   -0.214425    0.000000
    C   -0.100193   -0.201819    0.000000

