%NProcShared=4
#p b3lyp/6-311++G(3df,2p) freq

 b3lyp opt

0 3
    S    0.849374    0.063352    0.163130
    C   -0.505005    0.993835   -0.198647
    H   -1.077918    1.448356    0.597737
    H   -0.808444    1.130539   -1.227384

