%NProcShared=4
#p b3lyp/6-311++G(3df,2p) freq

 b3lyp opt

0 3
    S   -1.086612    0.005790    0.000000
    H   -0.677721   -1.460421    0.000000
    H   -2.070158    1.171406    0.000000

