%NProcShared=4
#p b3lyp/6-311++G(3df,2p) freq

 b3lyp opt

1 2
    S   -0.294775    0.035451   -0.000000
    H   -2.019398    0.062169    0.000000
    H   -2.875263    0.076727    0.000000

