%NProcShared=4
#p b3lyp/6-311++G(3df,2p) freq

 b3lyp opt

0 2
    S   -0.145138    0.641453    0.013252
    C   -0.479439   -0.945817    0.040430
    H   -0.771301    1.446888    0.952758
    H    1.061587    1.443948    0.134877
    H   -0.514744    1.375919   -1.106524

