%NProcShared=4
#p b3lyp/6-311++G(3df,2p) freq

 b3lyp opt

0 4
    S   -1.508968    0.417852    0.015760
    S    1.194722   -0.264729   -0.289170
    C    0.121025    0.874308    0.543856
    C   -0.432900   -0.711086   -0.818700
    H   -0.710128   -1.508351   -1.491476

