%NProcShared=4
#p b3lyp/6-311++G(3df,2p) freq

 b3lyp opt

1 1
    S   -0.603493   -0.788484   -0.000000
    C   -1.318795    0.613454    0.000000
    H    0.027526   -2.037120   -0.000000

