%NProcShared=4
#p b3lyp/6-311++G(3df,2p) freq

 b3lyp opt

1 1
    S   -1.075938    0.142393    0.000000
    S    0.840381   -0.041257    0.000000
    H   -2.448692    0.447169   -0.000000

