%NProcShared=4
#p b3lyp/6-311++G(3df,2p) freq

 b3lyp opt

2 2
    S   -1.047816    0.152541    0.000000
    S    0.780760   -0.059329   -0.000000
    H   -2.487723    0.435186    0.000000

