%NProcShared=4
#p b3lyp/6-311++G(3df,2p) freq

 b3lyp opt

1 3
    S   -1.100723    0.162951    0.000000
    S    0.795308   -0.061354   -0.000000
    H   -2.449363    0.426801    0.000000

