%NProcShared=4
#p b3lyp/6-311++G(3df,2p) freq

 b3lyp opt

0 2
    S   -1.149755    0.161614    0.000000
    S    0.867920   -0.067842    0.000000
    H   -2.472944    0.434625    0.000000

