%NProcShared=4
#p b3lyp/6-311++G(3df,2p) freq

 b3lyp opt

0 2
    S   -1.128992    0.140754    0.000000
    S    0.911291   -0.045286   -0.000000
    H   -2.466549    0.452836    0.000000

