%NProcShared=4
#p b3lyp/6-311++G(3df,2p) freq

 b3lyp opt

1 1
    S   -1.100225    0.161528   -0.000000
    S    0.802829   -0.061963    0.000000
    H   -2.457381    0.428835   -0.000000

