%NProcShared=4
#p b3lyp/6-311++G(3df,2p) freq

 b3lyp opt

0 2
    S   -1.275721    0.118088    0.000000
    S    0.735812   -0.025068   -0.000000
    H   -2.604050    0.251637    0.000000

