%NProcShared=4
#p b3lyp/6-311++G(3df,2p) freq

 b3lyp opt

1 1
    S   -1.228595    0.115916    0.000000
    S    0.675723   -0.021222   -0.000000
    H   -2.591088    0.249962    0.000000

