%NProcShared=1
#p b3lyp/6-311++G(3df,2p) freq symmetry=Loose

 b3lyp opt

2 4
    C   -0.674819    0.507310    0.000000
    C    0.820753    0.197758    0.000000
    N   -0.145934   -0.705068    0.000000

