%NProcShared=1
#p b3lyp/6-311++G(3df,2p) freq symmetry=Loose

 b3lyp opt

0 2
    C   -1.266785    0.090004   -0.000000
    C    1.227793   -0.170540    0.000000
    N   -0.019397   -0.040163    0.000000

