%NProcShared=1
#p b3lyp/6-311++G(3df,2p) freq symmetry=Loose

 b3lyp opt

2 4
    C    0.041699   -0.000000    0.000000
    C   -1.353233    0.000000   -0.000000
    N    1.311534    0.000000   -0.000000

