%NProcShared=1
#p b3lyp/6-311++G(3df,2p) freq symmetry=Loose

 b3lyp opt

1 3
C  0.469293103 -0.651729879  0.000000000
C  0.379263897  0.721514879 -0.000000000
N -0.687483000 -0.037994000 -0.000000000

