%NProcShared=1
#p b3lyp/6-311++G(3df,2p) freq symmetry=Loose

 b3lyp opt

1 3
    C   -0.004716   -0.605964   -0.000000
    C   -0.209530    0.691624    0.000000
    C    0.036067    1.997916    0.000000
    N    0.154050   -1.788160    0.000000

