%NProcShared=1
#p b3lyp/6-311++G(3df,2p) freq symmetry=Loose

 b3lyp opt

1 1
C -0.116758375  0.503412759  0.709818538
C -0.029860444 -0.811434263  0.333351600
C -0.771150893  0.067329562 -0.412546454
N  0.817866610  0.214423093 -0.559500015

