%NProcShared=1
#p b3lyp/6-311++G(3df,2p) freq symmetry=Loose

 b3lyp opt

2 4
    C    0.004388   -0.000000   -0.623378
    C   -0.055738    0.000000   -1.939045
    C   -0.070937    0.000000    1.870108
    N    0.072288    0.000000    0.585959

