%NProcShared=1
#p b3lyp/6-311++G(3df,2p) freq symmetry=Loose

 b3lyp opt

2 2
    C    0.049829    0.687974    0.092411
    C    0.712073    0.687974   -1.110088
    C    1.878770    0.687974   -2.099088
    N   -0.668212    0.687974   -0.988620

