%NProcShared=1
#p b3lyp/6-311++G(3df,2p) freq symmetry=Loose

 b3lyp opt

1 1
    C    0.003344   -0.607979   -0.000000
    C   -0.222673    0.688637    0.000000
    C    0.042731    2.003306    0.000000
    N    0.152470   -1.788547    0.000000

