%NProcShared=1
#p b3lyp/6-311++G(3df,2p) freq symmetry=Loose

 b3lyp opt

1 1
    C   -0.043437    0.787062    0.008419
    C    1.291465    0.050977   -0.045254
    C    0.019233   -0.788942    0.006330
    N   -1.094098   -0.044009    0.050099

