%NProcShared=1
#p b3lyp/6-311++G(3df,2p) freq symmetry=Loose

 b3lyp opt

0 4
    C    0.000000   -0.513747   -0.624644
    C    0.000000    0.311470   -1.832029
    C    0.000000    0.180236    1.766781
    N    0.000000   -0.047959    0.589244

