%NProcShared=1
#p b3lyp/6-311++G(3df,2p) freq symmetry=Loose

 b3lyp opt

1 3
    C    0.920547    0.527832    1.559966
    C    2.078756    1.148919    1.865293
    C   -0.887315   -1.092457    1.118491
    N    0.039797   -0.323788    1.359001

