%NProcShared=1
#p b3lyp/6-311++G(3df,2p) freq symmetry=Loose

 b3lyp opt

2 2
    C   -0.010670   -0.000000   -0.568508
    C   -0.005069    0.000000   -2.105118
    C   -0.019329   -0.000000    1.939943
    N   -0.014931    0.000000    0.627327

