%NProcShared=1
#p b3lyp/6-311++G(3df,2p) freq symmetry=Loose

 b3lyp opt

1 1
    C    1.334009   -0.000000   -0.000000
    C   -0.007376   -0.000000    0.000000
    C   -1.245643   -0.000000    0.000000
    C   -2.579783    0.000000   -0.000000
    N    2.498793    0.000000   -0.000000

