%NProcShared=1
#p b3lyp/6-311++G(3df,2p) freq symmetry=Loose

 b3lyp opt

1 3
    C    0.650619   -0.219683   -0.647969
    C   -0.369475    0.829212   -0.617614
    C   -0.959229   -0.475396   -0.145491
    C    0.310168    0.735622    0.724843
    N    0.324558   -0.763748    0.604426

