%NProcShared=1
#p b3lyp/6-311++G(3df,2p) freq symmetry=Loose

 b3lyp opt

0 4
C  0.806369264 -0.145967479  0.275110074
C -0.130444519 -1.028141233 -0.340871956
C  0.644248265  1.116909086 -0.504998598
C -0.610505736  0.307681521 -0.483711926
N -0.554741520 -0.238070053  0.923707633

