%NProcShared=1
#p b3lyp/6-311++G(3df,2p) freq symmetry=Loose

 b3lyp opt

0 2
C -0.050235000 -1.223362000  0.000000000
C -0.098892000 -2.523014000  0.000000000
C  0.103072000  2.522479000  0.000000000
C  0.048458000  1.223230000  0.000000000
N -0.002402000  0.000013000  0.000000000

