%NProcShared=1
#p b3lyp/6-311++G(3df,2p) freq symmetry=Loose

 b3lyp opt

1 3
    C   -0.586167   -0.091172    0.268094
    C   -0.375956    1.107454    0.847894
    C    0.748856    0.714095    0.233678
    C    0.616332   -0.513854   -0.831022
    N   -0.403065   -1.216523   -0.518644

