%NProcShared=1
#p b3lyp/6-311++G(3df,2p) freq symmetry=Loose

 b3lyp opt

0 4
    N    1.046389   -1.016919   -0.035976
    C    1.243116    0.272646    0.217726
    C   -1.374282   -0.186424   -0.246891
    C    2.185823    1.243351    0.525435
    C   -0.072411   -0.227277   -0.062701
    C   -2.633269   -0.006720   -0.400613

