%NProcShared=1
#p b3lyp/6-311++G(3df,2p) freq symmetry=Loose

 b3lyp opt

0 4
    C    1.094508   -0.151414   -0.429880
    N   -1.843249   -0.168521    1.055152
    C    1.072775    1.007397   -1.207589
    C   -0.709699   -0.231574    0.528023
    C   -0.088322    0.770960   -0.464764
    C    0.491455   -1.051155    0.483479

