%NProcShared=1
#p b3lyp/6-311++G(3df,2p) freq symmetry=Loose

 b3lyp opt

0 2
C  0.696766964  0.030263719 -1.046966893
C  0.516621939  0.812184960  0.225620309
C -0.685960858 -0.223318198 -0.820186580
C  0.962001031 -0.588042616  0.548624094
C -0.447597872 -0.778983413  0.613753779
N -0.907930889  0.635694469  0.394031107

