%NProcShared=1
#p b3lyp/6-311++G(3df,2p) freq symmetry=Loose

 b3lyp opt

0 2
C  0.519769671 -0.755590323 -0.066445910
C -0.535287760  0.316411338 -0.514644705
N -0.463705751  1.016626633  0.792826143
C -0.904691220 -1.079961143 -0.240478927
C  0.406791572  0.149752291  1.191705931
C  0.827900447  0.280879099 -1.064132890

