%NProcShared=1
#p b3lyp/6-311++G(3df,2p) freq symmetry=Loose

 b3lyp opt

1 1
C -0.103239000 -0.716365000 -0.282366000
C -0.497245000  0.748036000 -1.017658000
C -0.025804454  1.165991159  0.062461941
C  0.899629527 -0.553620112  1.948264709
C  0.383662165  0.055194430  0.864550672
N -0.625529347 -0.621667981 -1.427505706

