%NProcShared=1
#p b3lyp/6-311++G(3df,2p) freq symmetry=Loose

 b3lyp opt

0 2
    N    0.451694    1.911402    1.493507
    C    0.157214   -0.156085    0.011345
    C   -0.852596   -0.915852   -0.979926
    C   -0.474812   -1.462055    0.250074
    C    0.316630    0.979093    0.829373
    C    0.351095   -0.363816   -1.430230

