%NProcShared=1
#p b3lyp/6-311++G(3df,2p) freq symmetry=Loose

 b3lyp opt

0 4
C  1.741003000 -0.524698000  1.456885000
C -2.065460000  0.500521000 -1.701903000
C  0.687323873 -0.191366103  0.556804587
C -0.507510981 -0.547559223 -0.083168787
C  1.691047133  0.673257439  0.801243419
N -1.263110736  0.068638903 -0.924188473

