%NProcShared=1
#p b3lyp/6-311++G(3df,2p) freq symmetry=Loose

 b3lyp opt

0 4
    C    0.629922   -1.032356    0.040500
    N   -0.704337    0.542351   -0.813689
    C   -0.712546    0.574404    0.694233
    C   -0.849768   -0.775562   -0.095714
    C    0.771360    0.356164    0.854768
    C    0.716142    0.263113   -0.581266

