%NProcShared=1
#p b3lyp/6-311++G(3df,2p) freq symmetry=Loose

 b3lyp opt

0 4
C -0.871739563  0.916658325  0.186339180
C -0.310940343 -1.081142856 -0.667750823
C  0.282307631  1.165763932  0.729436418
C -1.313094318 -0.092375749 -0.503508163
C  1.198409863  0.109136113  0.498692004
N  0.875117055 -0.945976942 -0.173355099

