%NProcShared=1
#p b3lyp/6-311++G(3df,2p) freq symmetry=Loose

 b3lyp opt

1 1
    C   -0.647422    0.000000    0.000000
    N    0.524814    0.000000    0.000000

