%NProcShared=1
#p b3lyp/6-311++G(3df,2p) freq symmetry=Loose

 b3lyp opt

2 4
    C   -0.782253    0.000000    0.000000
    N    0.659645    0.000000    0.000000

