%NProcShared=1
#p b3lyp/6-311++G(3df,2p) freq symmetry=Loose

 b3lyp opt

2 2
    C   -0.703570    0.000000    0.000000
    N    0.580962    0.000000    0.000000

