%NProcShared=1
#p b3lyp/6-311++G(3df,2p) freq

 b3lyp opt

1 1
  N            0.00000000          0.00000000          0.00000000

