%NProcShared=2
#p b3lyp/6-311++G(3df,2p) freq IOp(2/17=3) IOp(2/18=3)

 b3lyp opt

-1 4
    C    1.953563   -0.496007   -0.062226
    C    0.704263   -0.112645   -0.033405
    C   -0.510137    0.260360   -0.003186
    O   -1.682759    0.620485    0.025920

