%NProcShared=2
#p b3lyp/6-311++G(3df,2p) freq IOp(2/17=3) IOp(2/18=3)

 b3lyp opt

-1 4
    C    1.672377   -1.026256   -0.219238
    C    0.676686   -0.325772   -0.071131
    C   -1.508873    1.211942    0.260765
    O   -0.327643    0.381249    0.078943

