%NProcShared=2
#p b3lyp/6-311++G(3df,2p) freq IOp(2/17=3) IOp(2/18=3)

 b3lyp opt

-1 4
    C    0.057425   -0.586333    0.025337
    C    0.215513    0.670146   -0.081324
    C    0.378006    1.962610   -0.191022
    O   -0.095332   -1.799313    0.128534

