%NProcShared=2
#p b3lyp/6-311++G(3df,2p) freq IOp(2/17=3) IOp(2/18=3)

 b3lyp opt

-1 4
    C    0.471066    0.196692   -0.488252
    H    0.770633    1.163856   -0.884434
    H   -0.560667    0.804274    1.023286
    O   -0.275096   -0.037257    0.580156

