%NProcShared=2
#p b3lyp/6-311++G(3df,2p) freq IOp(2/17=3) IOp(2/18=3)

 b3lyp opt

-1 4
    C    0.394424   -0.378591   -0.262284
    H    0.527170   -1.450142   -0.195762
    H   -0.765873    1.169036   -0.376760
    O   -0.807151    0.184969   -0.319101

