%NProcShared=2
#p b3lyp/6-311++G(3df,2p) freq IOp(2/17=3) IOp(2/18=3)

 b3lyp opt

-1 4
    H    0.607400    1.307593    0.000000
    H    1.497972   -1.029585    0.000000
    O    0.124236   -0.213417    0.000000

