%NProcShared=4
#p b3lyp/6-311++G(3df,2p) freq IOp(2/17=3) IOp(2/18=3)

 b3lyp opt

-1 3
    C    0.068978    0.030603   -0.468747
    C    0.651566   -1.259200   -0.327322
    H   -0.874653    0.172521   -0.992607
    H    0.656839    0.936469   -0.331763
    H    1.190580   -2.155571   -0.545872
    O   -0.039797   -0.815524    0.759988

