%NProcShared=2
#p b3lyp/6-311++G(3df,2p) freq IOp(2/17=3) IOp(2/18=3)

 b3lyp opt

-1 4
    C   -0.000000    1.110546    0.381755
    C    0.000000   -1.110546    0.381755
    O    0.000000   -0.000000    1.242880
    C   -0.000000   -0.671202   -1.007925
    C    0.000000    0.671202   -1.007925
    H   -0.000000    2.083758    0.840115
    H    0.000000   -2.083758    0.840115
    H   -0.000000   -1.335671   -1.858502
    H    0.000000    1.335671   -1.858502

