%NProcShared=2
#p b3lyp/6-311++G(3df,2p) freq IOp(2/17=3) IOp(2/18=3)

 b3lyp opt

-1 4
    C   -0.215193   -0.554933    1.023789
    C    0.683640    1.689450   -1.656321
    O    0.727347   -1.545485    1.119909
    C    0.050782    0.868587   -1.009145
    C   -0.652642   -0.064278   -0.289330
    H   -0.218263    0.087251    1.893590
    H    0.793391   -2.019514    0.274651
    H    1.220320    2.391990   -2.248470
    H   -1.561103   -0.469355   -0.734257

