%NProcShared=2
#p b3lyp/6-311++G(3df,2p) freq IOp(2/17=3) IOp(2/18=3)

 b3lyp opt

-1 4
    O    0.969772    1.455299   -0.000000
    C    0.265168    0.296607    0.000000
    C    1.026181   -0.993039    0.000000
    C   -1.090803    0.339916    0.000000
    C   -2.320785    0.280362    0.000000
    H    2.105151   -0.984836    0.000000
    H    0.491717   -1.933221   -0.000000
    H    1.934444    1.280303   -0.000000
    H   -3.380844    0.258708   -0.000000

