%NProcShared=2
#p b3lyp/6-311++G(3df,2p) freq IOp(2/17=3) IOp(2/18=3)

 b3lyp opt

-1 4
    O    0.059962   -0.361120    0.000427
    C    1.037806    0.610677   -0.000208
    C    2.435548    0.041910   -0.000002
    C   -1.194684   -0.025050    0.000327
    C   -2.372415    0.204749    0.000287
    H    0.733851    1.640766   -0.000781
    H    3.288124    0.705127   -0.000466
    H    2.575802   -1.026608    0.000588
    H   -3.414791    0.410848    0.000274

