%NProcShared=2
#p b3lyp/6-311++G(3df,2p) freq IOp(2/17=3) IOp(2/18=3)

 b3lyp opt

-1 3
    C   -0.535906    0.253852   -0.254523
    C    0.686315    0.550984    0.234734
    H    1.446781   -0.032187    0.770363
    O   -1.232742   -0.774647   -0.264474

