%NProcShared=2
#p b3lyp/6-311++G(3df,2p) freq IOp(2/17=3) IOp(2/18=3)

 b3lyp opt

-1 3
    C    0.155559    0.139202    0.631600
    C    0.032582   -0.950275   -0.095585
    C   -0.094025   -2.101714   -0.661478
    H    0.351524    1.967026    1.116969
    O    0.286786    1.481514    0.292691

