#p ccsd(t)/6-311+G(3df)

 ccsd(t)

2 1
    C    0.766175    0.000000    0.000000
    C   -0.766175    0.000000    0.000000

