%NProcShared=4
#p ccsd(t)/6-311+G(3df) scf(MaxCyc=300) guess(Huckel)

 ccsd(t) iener

2 1
    C    1.064612    0.000000    0.000000
    C   -1.064612    0.000000    0.000000

