%NProcShared=1
#p ccsd(t,maxcyc=200)/6-311++G(3df,2p)

 ccsd(t) iener

2 1
C -0.759828936  0.111432216 -0.000000000
C  0.476417098  0.602314764 -0.000000000
C  0.283410838 -0.713746981  0.000000000

