%NProcShared=4
#p ccsd(t)/6-311+G(3df) scf(MaxCyc=300) guess(Huckel)

 ccsd(t) iener

2 1
    C   -0.759732    0.111418    0.000000
    C    0.476407    0.602402    0.000000
    C    0.283324   -0.713820    0.000000

