%NProcShared=4
#p ccsd(t)/6-311+G(3df) scf(MaxCyc=300) guess(Huckel)

 ccsd(t) iener

2 3
    C   -1.163323    0.191551   -0.194768
    C    0.221995    0.106688    0.047169
    C    1.533252    0.733676    0.261192
    C   -0.591925   -1.031915   -0.113594

