%NProcShared=4
#p ccsd(t,maxcyc=1000)/6-311++G(3df,2p) scf(QC)

 ccsd(t) iener

0 2
    C   -2.085199    1.175515    0.000000
    C   -0.748260    1.175515    0.000000
    C    0.505420    1.175515    0.000000
    C    1.822059    1.175515    0.000000
    N   -3.252342    1.175515    0.000000

