%NProcShared=4
#p ccsd(t)/6-311+G(3df) scf(MaxCyc=300) guess(Huckel)

 ccsd(t) iener

2 3
    C    0.039718    1.778133    1.101250
    C    0.599040   -0.187142   -0.738728
    C   -0.619268   -0.725144    0.173907
    C   -0.030041   -1.404026   -0.867784
    C    0.010551    0.538179    0.331355

