%NProcShared=4
#p ccsd(t)/6-311+G(3df) scf(MaxCyc=300) guess(Huckel)

 ccsd(t) iener

2 1
    C    0.813848   -0.749167   -0.276968
    C   -0.545482   -0.933179   -0.364679
    C   -1.213047    0.207410    0.050768
    C   -0.097611    0.157195    1.027009
    C   -0.056504    0.807084   -0.659751
    C    1.098795    0.510657    0.223621

