%NProcShared=4
#p ccsd(t)/6-311+G(3df) scf(MaxCyc=300)

 ccsd(t) iener

1 4
    C    0.848462   -0.850999   -0.308741
    C   -0.541469   -1.037656   -0.411397
    C   -1.189877    0.218163    0.057610
    C   -0.112111    0.251719    1.058115
    C   -0.074586    0.896885   -0.620192
    C    1.069581    0.521888    0.224606

