%NProcShared=4
#p ccsd(t)/6-311+G(3df) scf(MaxCyc=300) guess(Huckel)

 ccsd(t) iener

2 3
    C    1.217306   -1.607313   -1.112072
    C   -1.014573    0.909726    0.299209
    C    0.435521   -0.619238   -0.506812
    C   -0.759624    0.171670   -0.791121
    C   -0.299861    1.027464    1.411252
    C    0.421232    0.117691    0.699542

