%NProcShared=4
#p ccsd(t)/6-311+G(3df) scf(MaxCyc=300) guess(Huckel)

 ccsd(t) iener

2 1
    C   -1.898932   -0.164225    0.109072
    C    0.670081    0.057932   -0.038470
    C   -0.670085   -0.057892    0.038538
    C    1.898927    0.164247   -0.109058
    C   -3.276353   -0.283336    0.188037
    C    3.276363    0.283274   -0.188119

