%NProcShared=6
#p ccsd(t)/6-311+G(3df) scf(MaxCyc=300)

 ccsd(t) iener

1 4
    C   -0.131982   -1.378939    0.606763
    C    0.498855    0.919006   -0.878135
    C   -0.792091   -0.391941    1.040490
    C   -1.035890    0.894031    0.900204
    C    1.014981   -0.213716   -1.099172
    C    0.790781   -1.425952   -0.441017
    C   -0.344655    1.597509   -0.129132

