%NProcShared=4
#p ccsd(t)/6-311+G(3df) scf(MaxCyc=300)

 ccsd(t) iener

1 2
    C   -0.000798   -0.051496    3.840098
    C    0.000487    0.169376    2.550334
    C    0.000415    0.127861    1.275143
    C    0.000374    0.107692   -0.000009
    C    0.000320    0.128011   -1.275137
    C    0.000298    0.169699   -2.550338
    C   -0.001096   -0.051141   -3.840091

