%NProcShared=4
#p ccsd(t)/6-311+G(3df) scf(MaxCyc=300) guess(Huckel)

 ccsd(t) iener

2 1
    C   -0.705335   -1.817347    1.462163
    C    0.424691    1.095161   -0.881092
    C   -0.300232   -0.774872    0.622980
    C   -0.688100    0.599312    0.617116
    C    1.086691    0.034705   -1.309380
    C    0.617424   -0.782215   -0.469856
    C   -0.435139    1.645256   -0.041931

