%NProcShared=4
#p ccsd(t)/6-311+G(3df) scf(MaxCyc=300) guess(Huckel)

 ccsd(t) iener

2 1
    C    2.863034    0.086967    0.117545
    C    1.597886    0.628972    0.410114
    C   -0.789315   -0.292242   -0.191280
    C    0.241413    0.481406    0.291778
    C   -1.764038   -0.932324   -0.594905
    C   -2.872080   -1.620940   -1.028684
    C    0.723100    1.648160    0.995432

