%NProcShared=4
#p ccsd(t,maxcyc=200)/6-311++G(3df,2p)

 ccsd(t) iener

0 3
    C    0.000000    0.000000    0.303225
    H    0.000000    0.458879   -0.909676
    H    0.000000   -0.458879   -0.909676

