#p ccsd(t)/6-311++G(3df,2p) scf(MaxCyc=300) guess(Huckel) 

ccsd(t) iener

0 1
    6       0.000000    0.000000    0.000000
    6       0.000000    1.283862    0.000000
    6      -0.000000   -1.283862    0.000000
    1       0.835465    1.968544    0.000000
    1      -0.835465   -1.968544    0.000000

