%NProcShared=4
#p ccsd(t,maxcyc=200)/6-311++G(3df,2p)

 ccsd(t) iener

0 2
C  1.192488974 -0.089051996 -0.072107167
C -1.034078964  0.846471374 -0.476340100
C -0.120461711  0.144404023  0.283309071
H -0.460905646 -0.255101438  1.233936359
H  1.859974434 -0.647400200  0.567647535
H -2.050317713  0.995563226 -0.142265169
H -0.757565191  1.269948259 -1.433181462
H  1.593236525  0.282226345 -1.006393912

