%NProcShared=4
#p ccsd(t,maxcyc=200)/6-311++G(3df,2p)

 ccsd(t) iener

1 1
    C   -0.236599   -0.023236   -0.062779
    C    1.033084   -0.605253    0.062328
    C   -1.379845    0.511304   -0.135738
    H   -1.852708    0.978668    0.730253
    H   -1.928819    0.518140   -1.080883
    H    1.026585   -1.689689   -0.071859
    H    1.279313   -0.424677    1.133249
    H    1.802798   -0.090515   -0.518139

