%NProcShared=4
#p ccsd(t,maxcyc=200)/6-311++G(3df,2p)

 ccsd(t) iener

0 4
    C   -0.164912    0.374104    0.148371
    C    0.877000   -0.685464    0.072014
    C   -1.246319    0.395796   -0.882539
    H   -1.169567    0.691315   -1.931455
    H    0.139519    1.339801    0.550039
    H    0.430696   -1.682587    0.052182
    H    1.474612   -0.599192   -0.850290
    H    1.572851   -0.617272    0.909371

