%NProcShared=4
#p ccsd(t,maxcyc=200)/6-311++G(3df,2p)

 ccsd(t) iener

0 1
C  0.314050179 -0.484712487  0.324097804
C -0.197748408  0.778111489 -0.313757443
C -1.158725986 -0.314706288  0.068070925
H -0.195874295  1.683616543  0.276732603
H -1.608268418 -0.897002214 -0.724055622
H  0.861167454 -1.182055309 -0.294769778
H  0.662269542 -0.433787920  1.346238388
H  0.003023617  0.935349153 -1.364275563
H -1.807166330 -0.148734824  0.916952544

