%NProcShared=4
#p b3lyp/6-311++G(3df,2p) freq symmetry=Loose

 b3lyp opt

0 3
    H    0.000000   -0.000000    1.727352
    C   -0.000000    0.000000    0.665287
    C   -0.000000    0.000000   -0.665287
    H    0.000000   -0.000000   -1.727352

