%NProcShared=4
#p b3lyp/6-311++G(3df,2p) freq symmetry=Loose

 b3lyp opt

0 1
    C    0.000000    0.000000   -1.263406
    H    0.000000    0.000000   -2.324735
    C    0.000000    0.000000    0.000022
    C    0.000000    0.000000    1.263403
    H    0.000000    0.000000    2.324621

