%NProcShared=4
#p b3lyp/6-311++G(3df,2p) freq symmetry=Loose

 b3lyp opt

1 3
    C    0.000000    0.000000    0.088994
    H    0.000000    0.000000    1.170138
    H    0.000000    0.698432   -0.852052
    H    0.000000   -0.698432   -0.852052

