%NProcShared=4
#p b3lyp/6-311++G(3df,2p) freq symmetry=Loose

 b3lyp opt

0 4
    C    0.052526   -0.686337    0.000000
    H    0.983656   -1.229501    0.000000
    H   -0.881312   -1.231374    0.000000
    C    0.052526    0.834115    0.000000
    H   -0.732654    1.574206    0.000000

