%NProcShared=4
#p b3lyp/6-311++G(3df,2p) freq symmetry=Loose

 b3lyp opt

2 4
    C    0.000156   -1.298701    0.000000
    H    0.954075   -1.878638   -0.000000
    H   -0.953490   -1.879057   -0.000000
    C   -0.000089    0.074025    0.000000
    C   -0.000222    1.428656   -0.000000
    H   -0.000363    2.533741    0.000000

