%NProcShared=4
#p b3lyp/6-311++G(3df,2p) freq symmetry=Loose

 b3lyp opt

0 2
    C    0.218498   -1.243997   -0.000906
    C    1.170707   -0.123733    0.000036
    H    2.247010   -0.181983    0.000376
    C    0.367490    1.037145    0.000196
    H    0.726205    2.056857    0.000417
    C   -0.940327   -0.833140    0.000839
    C   -0.985726    0.635093    0.000033
    H   -1.861968    1.262613   -0.000192

