%NProcShared=4
#p b3lyp/6-311++G(3df,2p) freq symmetry=Loose

 b3lyp opt

2 4
    C   -0.049102    0.363116   -0.000083
    C   -1.143856    1.202825    0.000033
    C    1.012744    1.162714   -0.000102
    H    1.797189    1.923234    0.000073
    C   -0.049446   -1.280059    0.620598
    H   -0.058644   -1.461614    1.693016
    C   -0.049550   -1.279874   -0.620575
    H   -0.058580   -1.461653   -1.692960

