%NProcShared=4
#p b3lyp/6-311++G(3df,2p) freq symmetry=Loose

 b3lyp opt

2 4
    C    1.071747   -1.516874    0.000000
    H    2.109344   -1.192286    0.000000
    H    0.829009   -2.584600    0.000000
    C    0.000000   -0.625482    0.000000
    C   -1.247614   -0.104710    0.000000
    H   -2.338656   -0.185346    0.000000
    C   -0.267190    0.872017    0.000000
    C    0.343108    2.035421    0.000000

