%NProcShared=4
#p b3lyp/6-311++G(3df,2p) freq symmetry=Loose

 b3lyp opt

3 2
    C   -0.000000    0.000000    0.000425
    H    1.266085    0.853489   -0.000303
    H    1.266085   -0.853489    0.000090
    H   -1.266085   -0.853489   -0.000303
    H   -1.266085    0.853489    0.000090

