%NProcShared=4
#p b3lyp/6-311++G(3df,2p) freq symmetry=Loose

 b3lyp opt

1 4
    C    0.000000    0.950080    0.000000
    H    1.047678    1.220991    0.000000
    H   -1.048208    1.218535    0.000000
    C    0.000000   -0.950080    0.000000
    H   -1.047678   -1.220991    0.000000
    H    1.048208   -1.218535    0.000000

