%NProcShared=4
#p b3lyp/6-311++G(3df,2p) freq symmetry=Loose

 b3lyp opt

2 1
    C    0.000000    0.808801    0.000000
    H    0.967166    1.343616    0.000000
    H   -0.967820    1.342555    0.000000
    C    0.000000   -0.808801    0.000000
    H   -0.967166   -1.343616    0.000000
    H    0.967820   -1.342555    0.000000

