%NProcShared=4
#p b3lyp/6-311++G(3df,2p) freq symmetry=Loose

 b3lyp opt

0 3
    C   -1.162332   -0.133863   -0.000004
    H   -1.246628   -1.224143    0.000103
    H   -1.696424    0.279679    0.863580
    H   -1.696266    0.279463   -0.863797
    C    0.210011    0.379665   -0.000004
    C    1.388558   -0.314659   -0.000144
    H    2.346748    0.210429   -0.000152

