%NProcShared=4
#p b3lyp/6-311++G(3df,2p) freq symmetry=Loose

 b3lyp opt

3 4
    C    0.000000    0.764555    0.555093
    H    0.000000    1.314317    1.541954
    C    0.000000   -0.764555    0.555093
    H    0.000000   -1.314317    1.541954
    C    0.000000    1.575674   -0.604833
    C    0.000000   -1.575674   -0.604833
    H    0.000000   -2.506258   -1.243514
    H    0.000000    2.506258   -1.243514

