%NProcShared=4
#p b3lyp/6-311++G(3df,2p) freq symmetry=Loose

 b3lyp opt

2 4
    H    0.000000    0.000000    1.206740
    C    0.000000    0.643916   -0.100562
    C    0.000000   -0.643916   -0.100562

