%NProcShared=4
#p b3lyp/6-311++G(3df,2p) freq symmetry=Loose

 b3lyp opt

2 2
    H    0.000000    0.000000    1.508100
    C    0.000000    0.000000    0.355210
    C    0.000000    1.198609   -0.303280
    C    0.000000   -1.198609   -0.303280

