%NProcShared=4
#p b3lyp/6-311++G(3df,2p) freq symmetry=Loose

 b3lyp opt

1 1
    H    0.000000    0.000000    3.241756
    C    0.000000    0.000000    2.168223
    C    0.000000    0.000000    0.955026
    C    0.000000    0.000000   -0.387318
    C    0.000000    0.641860   -1.638112
    C    0.000000   -0.641860   -1.638112

