%NProcShared=4
#p ccsd(t)/6-311++G(3df,2p) scf(MaxCyc=300) guess(Huckel)

 ccsd(t) iener

1 2
    S    0.911345    0.000000    0.000000
    S   -0.911345    0.000000    0.000000

