%NProcShared=4
#p ccsd(t)/6-311++G(3df,2p) scf(MaxCyc=300) guess(Huckel)

 ccsd(t) iener

1 4
    S    1.029760    0.000000    0.000000
    S   -1.029760    0.000000    0.000000

