%NProcShared=4
#p ccsd(t)/6-311++G(3df,2p) scf(MaxCyc=300) guess(Huckel)

 ccsd(t) iener

0 1
    S    0.951648    0.000000    0.000000
    S   -0.951648    0.000000    0.000000

