%NProcShared=4
#p ccsd(t)/6-311++G(3df,2p) scf(MaxCyc=300) guess(Huckel)

 ccsd(t) iener

1 4
    S   -0.000080    0.409297   -0.655632
    S   -1.638711   -0.204737    0.327959
    S    1.638790   -0.204559    0.327674

