%NProcShared=4
#p ccsd(t)/6-311++G(3df,2p) scf(MaxCyc=300) guess(Huckel)

 ccsd(t) iener

1 2
S -0.905480000 -0.676438000  0.000000000
S  1.104846079 -0.534691217  0.000000000
S -0.199366079  1.211128217 -0.000000000

