%NProcShared=4
#p ccsd(t)/6-311++G(3df,2p) scf(MaxCyc=300) guess(Huckel)

 ccsd(t) iener

1 4
S -0.805502000 -0.601780000  0.000000000
S  1.216070975 -0.787766423 -0.000000000
S -0.410569975  1.389545423 -0.000000000

