%NProcShared=4
#p ccsd(t)/6-311++G(3df,2p) scf(MaxCyc=300) guess(Huckel)

 ccsd(t) iener

0 3
    S   -0.000059    0.303133   -0.485574
    S   -1.765764   -0.151662    0.242941
    S    1.765822   -0.151470    0.242635

