%NProcShared=4
#p ccsd(t)/6-311++G(3df,2p) scf(MaxCyc=300) guess(Huckel)

 ccsd(t) iener

0 1
    S   -0.525271   -0.392435    0.000000
    S    1.250501   -1.126212    0.000000
    S   -0.725231    1.518645    0.000000

