%NProcShared=4
#p ccsd(t)/6-311++G(3df,2p) scf(MaxCyc=300) guess(Huckel)

 ccsd(t) iener

0 1
S -0.967118813 -0.722475027 -0.000000000
S  1.109240845 -0.476312448  0.000000000
S -0.142122031  1.198786474  0.000000000

