%NProcShared=4
#p ccsd(t)/6-311++G(3df,2p) scf(MaxCyc=300) guess(Huckel)

 ccsd(t) iener

1 4
S  1.205924801  0.982932368  0.314034688
S -0.549294801 -0.490709368  1.562307312
S  0.352698515  0.323678412 -1.332209215
S -1.189056515 -0.970743412 -0.235747785

