%NProcShared=4
#p ccsd(t)/6-311++G(3df,2p) scf(MaxCyc=300) guess(Huckel)

 ccsd(t) iener

0 1
S  1.224132886  0.591868843  0.481304970
S -0.543117550 -0.079358990  1.463349766
S  0.056197227  0.483919824 -1.297010579
S -0.916939563 -1.151270677 -0.339258157

