%NProcShared=4
#p ccsd(t)/6-311++G(3df,2p) scf(MaxCyc=300) guess(Huckel)

 ccsd(t) iener

0 1
S  0.000010693  1.196924201  1.622695164
S  0.000007381 -0.636729571  1.077509140
S -0.000006381 -0.683865429 -1.036924140
S -0.000010693  1.123671799 -1.663281164

