%NProcShared=4
#p ccsd(t)/6-311++G(3df,2p) scf(MaxCyc=300) guess(Huckel)

 ccsd(t) iener

0 1
S -0.094721000 -0.345337500  2.472064250
S  0.196195000  0.604827500  0.818859750
S -0.196195000 -0.604827500 -0.818860250
S  0.094721000  0.345337500 -2.472064750

