%NProcShared=4
#p ccsd(t)/6-311++G(3df,2p) scf(MaxCyc=300) guess(Huckel)

 ccsd(t) iener

1 2
    S    0.100007   -1.472763    0.000049
    S   -1.372716   -0.000007    0.011664
    S    0.099993    1.472763    0.000050
    S    1.572716    0.000007   -0.011764

