%NProcShared=4
#p ccsd(t)/6-311++G(3df,2p) scf(MaxCyc=300) guess(Huckel)

 ccsd(t) iener

1 4
    S    1.269797    0.254069    0.597019
    S    0.675326    1.257427    2.065666
    S   -0.642386   -1.244290   -0.446469
    S   -1.482464   -0.422048   -1.907829

