%NProcShared=4
#p ccsd(t)/6-311++G(3df,2p) scf(MaxCyc=300) guess(Huckel)

 ccsd(t) iener

0 1
S  1.261654980  0.703083427  0.292455129
S -0.456373541  1.060857097 -0.915388739
S  0.571218530 -1.311353134  0.354532992
S -1.376501968 -0.452588390  0.268400618

