%NProcShared=4
#p ccsd(t)/6-311++G(3df,2p) scf(MaxCyc=300) guess(Huckel)

 ccsd(t) iener

1 2
    S   -0.026214    1.697248    0.253827
    S   -1.581976    0.429192   -0.339792
    S   -0.894987   -1.316814    0.510276
    S    0.870844   -1.319616   -0.549142
    S    1.632331    0.509989    0.124830

