%NProcShared=8
#p ccsd(t)/6-311+G(3df) scf(QC,MaxCyc=300)

 ccsd(t) iener

1 2
S  3.258864465  0.285198805  0.088275312
S  1.644902234 -0.713599368  0.010097068
S  0.015382104  0.630462884 -0.134147520
S -1.676423059 -0.578370881  0.264803501
S -3.242724744  0.376308559 -0.229028360

