%NProcShared=4
#p ccsd(t)/6-311++G(3df,2p) scf(MaxCyc=300) guess(Huckel)

 ccsd(t) iener

0 3
    S   -1.100978   -0.476077   -1.387503
    S    0.905907    0.161118   -1.088674
    S    1.046708    0.340658    2.272234
    S   -2.366003    0.728721   -0.527851
    S    1.514367   -0.754421    0.731794

