%NProcShared=8
#p ccsd(t)/6-311++G(3df,2p) scf(QC,MaxCyc=300)

 ccsd(t) iener

1 2
    S   -0.487287   -0.553328   -0.597916
    S   -2.093630   -0.352642    0.678824
    S   -1.761904    1.040596   -0.888465
    S    1.379770    0.388632    0.634907
    S    2.963051   -0.523259    0.172649

