%NProcShared=4
#p ccsd(t)/6-311++G(3df,2p) scf(MaxCyc=300)

 ccsd(t) iener

0 1
    S    0.066180   -0.192029   -0.609765
    S   -1.532377   -0.654210    0.573380
    S   -2.043913    0.924774   -0.721638
    S    1.422982    0.958704    0.391208
    S    2.087128   -1.037240    0.366814

