%NProcShared=4
#p ccsd(t)/6-311++G(3df,2p) scf(MaxCyc=300) guess(Huckel)

 ccsd(t) iener

1 2
    S   -1.326891    0.610704    0.570245
    S    3.389387   -0.835450    1.094078
    S    0.817287    1.216571    0.571286
    S    1.633952    0.167440    2.028880
    S   -1.716983   -0.705016    1.863002
    S    3.559495   -0.454312   -0.744500

