%NProcShared=4
#p ccsd(t)/6-311++G(3df,2p) scf(MaxCyc=300) guess(Huckel)

 ccsd(t) iener

1 2
    S   -0.203882   -0.144774   -0.875424
    S    0.304975    1.904742    3.516008
    S   -0.485122    1.270999    1.934188
    S   -1.346233   -1.625868    1.891372
    S   -0.810282   -2.061293    0.092868
    S    0.985763    0.656513    0.512621

