%NProcShared=4
#p ccsd(t)/6-311++G(3df,2p) scf(MaxCyc=300) guess(Huckel)

 ccsd(t) iener

0 1
S  1.215194762  0.517068495  0.754355718
S -1.319961131  0.886366644 -1.263821082
S  0.023637465 -0.601606977  2.046442082
S -1.829053347  0.341777262  1.911187838
S  0.532729680 -0.057017596 -1.128566838
S -2.511518429 -0.232308828  0.028265282

