%NProcShared=4
#p ccsd(t)/6-311++G(3df,2p) scf(MaxCyc=300) guess(Huckel)

 ccsd(t) iener

0 1
S -0.519365358  0.028323222 -0.520105018
S  0.447521697 -1.025181753  2.471099245
S -1.321106824 -0.872285875  1.131908587
S  1.916016442 -0.182212701  1.323945621
S  1.578306782  1.834864114  1.304238111
S -0.190321740  1.987759992 -0.034952547

