%NProcShared=4
#p b3lyp/6-311++G(3df,2p) freq symmetry=Loose

 b3lyp opt

0 2
    N    0.230094   -0.112940   -0.779889
    C    1.316330    0.893881   -1.127235
    C    1.710626   -0.405957   -0.970746
    C   -0.909249   -0.429949   -0.540921

