%NProcShared=4
#p b3lyp/6-311++G(3df,2p) freq symmetry=Loose

 b3lyp opt

0 4
    N   -0.010320   -0.000000   -0.655796
    C   -0.005643    0.000000   -1.950963
    C   -0.019378   -0.000000    1.954108
    C   -0.014658    0.000000    0.546295

