%NProcShared=4
#p b3lyp/6-311++G(3df,2p) freq symmetry=Loose

 b3lyp opt

0 2
    C    1.061118    0.623647    0.916011
    N    1.290458   -0.142596    2.029783
    C   -0.076585   -0.046061    2.076423
    C   -0.154183   -0.130666    0.620360

