%NProcShared=4
#p b3lyp/6-311++G(3df,2p) freq symmetry=Loose

 b3lyp opt

0 4
    C    0.000000   -0.031239   -0.711472
    N    0.000000   -0.055805   -1.942859
    C   -0.000000    0.022703    1.992970
    C   -0.000000   -0.005658    0.560713

