%NProcShared=4
#p b3lyp/6-311++G(3df,2p) freq symmetry=Loose

 b3lyp opt

0 4
    N   -0.124173    0.000000   -0.663596
    C   -0.013720   -0.000000   -1.909399
    C   -0.115933   -0.000000    1.931479
    C    0.203827    0.000000    0.535160

