%NProcShared=4
#p b3lyp/6-311++G(3df,2p) freq symmetry=Loose

 b3lyp opt

0 4
    C   -1.085805    1.320089    0.258055
    C   -1.567066    0.187922    0.712826
    C   -0.209809    0.126486    0.104848
    N    1.886857   -1.051468   -0.609637
    C    0.900385   -0.497258   -0.273472

