%NProcShared=4
#p b3lyp/6-311++G(3df,2p) freq symmetry=Loose

 b3lyp opt

0 4
    C    0.323134    1.632259   -0.002624
    C   -0.021386    0.184666    0.006254
    C    0.272095   -1.110508    0.005040
    N    0.533416   -2.261405    0.005734
    C   -0.956009    1.344470    0.002896

