%NProcShared=4
#p b3lyp/6-311++G(3df,2p) freq symmetry=Loose

 b3lyp opt

0 2
    N   -0.049688   -1.128112   -0.018911
    C    0.672801    0.126098   -0.589569
    C   -0.143871    1.161259    0.023337
    C   -0.890260   -0.084634   -0.434625
    C    0.324730   -0.074671    0.918751

