%NProcShared=4
#p b3lyp/6-311++G(3df,2p) freq symmetry=Loose

 b3lyp opt

0 4
    N    0.722808   -0.714125    0.127132
    C   -0.196076    0.144830   -0.018569
    C   -0.770276    1.511324    0.088812
    C   -1.553753    0.584707   -0.432960
    C    1.601126   -1.535023    0.266404

