%NProcShared=4
#p b3lyp/6-311+G(3df) freq symmetry=Loose

 b3lyp opt

2 1
    C   -1.492235   -0.341757    0.000000
    C    1.492119    0.342138    0.000000
    C    0.000116   -0.000381    0.000000

