%NProcShared=4
#p b3lyp/6-311+G(3df) freq symmetry=Loose

 b3lyp opt

2 3
    C   -0.587178    0.253207    0.261172
    C    1.890837   -0.308673   -0.509234
    C   -0.750722   -0.916216   -0.478651
    C   -1.133032    1.316549    1.046956
    C    0.580095   -0.344867   -0.320242

