%NProcShared=4
#p b3lyp/6-311+G(3df) freq symmetry=Loose

 b3lyp opt

1 4
    C    1.015667    0.413113    0.008338
    C   -0.503375    0.806698   -0.545772
    C   -1.015667   -0.413113   -0.008338
    C    0.503376   -0.806698    0.545772
    C   -0.634561   -1.511339    0.665908
    C    0.634562    1.511339   -0.665908

