%NProcShared=4
#p b3lyp/6-311+G(3df) freq symmetry=Loose

 b3lyp opt

1 2
    C    1.259990    0.194682   -0.418667
    C    0.616133    0.840006    0.617701
    C   -0.492044   -1.451243    0.254892
    C    0.781577   -1.059158    0.057356
    C   -0.060474    0.801197   -0.906332
    C   -0.848879    1.019241    0.205506
    C   -1.256303   -0.344725    0.189545

