%NProcShared=4
#p b3lyp/6-311+G(3df) freq symmetry=Loose

 b3lyp opt

1 4
    C   -2.018319   -0.371491    0.000000
    C    1.015794    0.495032    0.000000
    C   -1.259639    0.672224   -0.000000
    C    0.360781   -1.302108   -0.000000
    C    1.591200   -0.658979   -0.000000
    C   -0.066485    1.292167   -0.000000
    C   -0.902992   -1.195487    0.000000

