%NProcShared=4
#p b3lyp/6-311+G(3df) freq symmetry=Loose

 b3lyp opt

2 1
    C    1.297939    0.403052    0.092733
    C    1.976957   -0.733752    0.243439
    C   -2.461388    0.789651   -0.292840
    C   -0.581933   -0.850525    0.009616
    C   -1.098542    0.454403   -0.139632
    C    0.159245    1.059115   -0.065506
    C    0.707722   -1.121943    0.152190

