%NProcShared=4
#p b3lyp/6-311+G(3df) freq symmetry=Loose

 b3lyp opt

2 3
    C    2.944449    0.151541    0.157797
    C    1.654187    0.627446    0.410854
    C   -0.857732   -0.250773   -0.169112
    C    0.175288    0.507452    0.305399
    C   -1.804656   -0.922917   -0.590530
    C   -2.875260   -1.649279   -1.044861
    C    0.763724    1.536528    0.930453

