%NProcShared=4
#p b3lyp/6-311+G(3df) freq symmetry=Loose

 b3lyp opt

2 3
    C    1.406216    1.060553    0.483698
    C    0.448921    0.101231    0.048187
    C   -0.857960   -0.194511   -0.090842
    C    1.789494   -0.338114   -0.141948
    C   -2.064210   -0.466951   -0.220071
    C   -3.395541   -0.766732   -0.364706
    C    2.673079    0.604524    0.285682

