%NProcShared=4
#p b3lyp/6-311+G(3df) freq symmetry=Loose

 b3lyp opt

1 4
    C    1.011992   -0.430480   -0.257989
    C    0.437117    1.252825    0.485169
    C   -0.539123    0.030684   -1.307873
    C    0.075663    1.097163   -0.790329
    C   -0.383243   -0.966014    0.868625
    C   -0.788001   -1.103844   -0.395769
    C    0.185597    0.119666    1.398165

