%NProcShared=1
#p b3lyp/6-311++G(3df,2p) freq symmetry=Loose

 b3lyp opt

0 2
F -0.647438000 -0.905382000  0.000000000
F  1.073597755 -0.083546825  0.000000000
F -0.426160755  0.988928825 -0.000000000

