%NProcShared=1
#p b3lyp/6-311++G(3df,2p) freq symmetry=Loose

 b3lyp opt

1 1
F -1.159153972 -0.237300385 -0.013478344
F  1.140839972 -0.312752615  0.028311344
F  0.018315000  0.550053000 -0.014870000

