%NProcShared=1
#p b3lyp/6-311++G(3df,2p) freq symmetry=Loose

 b3lyp opt

0 1
F  0.178239488 -1.048129581 -1.243362840
F  1.215127779  1.024894707  0.386459041
F -1.393367267  0.023234874  0.856903049
F  0.000000000 -0.000000000 -0.000000250

