%NProcShared=4
#p b3lyp/6-311++G(3df,2p) freq symmetry=Loose

 b3lyp opt

0 3
    C    0.554564    0.318430   -0.078290
    C   -0.693444   -0.020166    0.371463
    H    0.850464    1.358312   -0.240506
    H   -0.989305   -1.060045    0.533771

