%NProcShared=4
#p b3lyp/6-311++G(3df,2p) freq symmetry=Loose

 b3lyp opt

0 3
    C    0.858194    0.400909   -0.146351
    C   -0.291186   -0.062585    0.274897
    H   -1.217006    0.491351    0.116487
    H   -0.359095   -1.017190    0.797577

