%NProcShared=4
#p b3lyp/6-311++G(3df,2p) freq symmetry=Loose

 b3lyp opt

1 3
    H    0.026648    0.256315   -1.460439
    H    0.904580   -1.299349    0.750083
    C    0.669434   -0.264415    0.472053
    F   -0.314035   -0.144340   -0.655031

