%NProcShared=1
#p b3lyp/6-311++G(3df,2p) freq symmetry=Loose

 b3lyp opt

1 1
C  0.021729336 -0.008453809  0.102169436
H  0.023364396 -0.009791030  1.197284701
H  0.906730145 -0.061575462 -0.540663018
F -1.071368030  0.058686326 -0.455431680

