%NProcShared=4
#p b3lyp/6-311++G(3df,2p) freq symmetry=Loose

 b3lyp opt

1 1
    H    0.709470    0.855393   -0.011051
    H    0.855716   -0.754111    0.023274
    F    0.254500    0.002256   -0.013060

