%NProcShared=1
#p b3lyp/6-311++G(3df,2p) freq symmetry=Loose

 b3lyp opt

1 3
H -0.360975559  1.353291313  0.035938091
H  0.361025442 -1.353278687 -0.041328909
H -0.000049883 -0.000013625 -0.002696182

