%NProcShared=4
#p b3lyp/6-311++G(3df,2p) freq symmetry=Loose

 b3lyp opt

1 1
    H   -0.358330    0.359493    0.006913
    H   -0.132239   -0.489859   -0.017335
    H    0.490568    0.130366    0.002336

