%NProcShared=2
#p b3lyp/6-311++G(3df,2p) freq

 b3lyp opt

2 4
C -0.000087836  0.001778236  0.560720027
H -1.080140297  0.551772356 -0.122334035
H  1.018463010  0.658714400 -0.122331033
H  0.061775324 -1.212189586 -0.116055251

