%NProcShared=2
#p b3lyp/6-311++G(3df,2p) freq

 b3lyp opt

2 2
C -0.056468845  0.312130908 -0.000531858
H -1.135915352 -0.059277743  0.000969777
H  0.827858770 -1.166609894  0.002106524
H  0.781476722  1.087368736 -0.002754008

