%NProcShared=1
#p b3lyp/6-311++G(3df,2p) freq symmetry=Loose

 b3lyp opt

1 2
H  0.174094870  0.033087295  1.621351642
H  0.452107628 -1.334793193  0.278213660
H -1.075181130 -0.460542705  1.087832642
C -0.033988391 -0.403569847  0.554845438
F -0.031208299  0.535583672 -0.320601274

