%NProcShared=4
#p b3lyp/6-311++G(3df,2p) freq symmetry=Loose

 b3lyp opt

0 2
    C    0.161209    0.000000    0.000000
    H   -0.961499    0.000000    0.000000

