%NProcShared=4
#p b3lyp/6-311++G(3df,2p) freq symmetry=Loose

 b3lyp opt

1 1
    H    0.000000    0.346778    1.563005
    C    0.000000   -0.101237    0.566150
    C    0.000000    0.054458   -0.755109

