%NProcShared=2
#p b3lyp/6-311++G(3df,2p) freq

 b3lyp opt

0 4
H -1.630012085 -0.002021289 -0.558901073
C -0.800753584 -0.001045517  0.150926967
C  0.537036738 -0.653413391 -0.028954308
C  0.535384770  0.654735265 -0.028822653

