%NProcShared=4
#p b3lyp/6-311++G(3df,2p) freq symmetry=Loose

 b3lyp opt

0 3
    H    0.718948    1.337954    0.005159
    C    0.631588    0.253112    0.003673
    F   -0.534282   -0.344084   -0.009085

