%NProcShared=1
#p b3lyp/6-311++G(3df,2p) freq symmetry=Loose

 b3lyp opt

0 1
H  1.360589340  0.001233814 -0.675778039
C  0.411078731 -0.010720101 -0.142574485
F -0.291122871 -1.103078656 -0.465087117
F  0.618562439 -0.013478422  1.179277096
F -0.313914627  1.069041152 -0.456977038

