%NProcShared=4
#p b3lyp/6-311++G(3df,2p) freq symmetry=Loose

 b3lyp opt

0 3
    H    0.824244   -0.356937    0.467268
    F   -0.407324    1.118306   -0.127778
    F   -0.748121   -0.854814    0.091585
    F    1.397203    0.394480    0.513603

