%NProcShared=4
#p b3lyp/6-311+G(3df) freq symmetry=Loose

 b3lyp opt

2 3
    C    0.750824    0.000000    0.000000
    C   -0.750824    0.000000    0.000000

