%NProcShared=4
#p b3lyp/6-311+G(3df) freq symmetry=Loose

 b3lyp opt

2 3
C  0.000014544 -0.000036543 -0.000000000
C  1.179465728  0.469451771 -0.000000000
C -1.179480272 -0.469415228  0.000000000

