%NProcShared=4
#p b3lyp/6-311+G(3df) freq symmetry=Loose

 b3lyp opt

2 1
C -0.759828936  0.111432216 -0.000000000
C  0.476417098  0.602314764 -0.000000000
C  0.283410838 -0.713746981  0.000000000

