%NProcShared=4
#p b3lyp/6-311+G(3df) freq symmetry=Loose

 b3lyp opt

2 1
    C    0.624166    0.797590    0.117530
    C   -0.773639    0.550738    0.371028
    C    0.773653   -0.550744   -0.371021
    C   -0.624181   -0.797584   -0.117536

