%NProcShared=4
#p b3lyp/6-311+G(3df) freq symmetry=Loose

 b3lyp opt

2 1
    C    0.367340    0.674545    0.906600
    C    0.311585    0.440940   -0.454027
    C   -0.369287   -0.673701   -0.907073
    C   -0.309638   -0.441785    0.454501

