%NProcShared=4
#p b3lyp/6-311+G(3df) freq symmetry=Loose

 b3lyp opt

2 3
C  0.553916490 -0.541901802  0.184622919
C -0.553958588  0.541862006 -0.184611945
C -0.823663950 -0.768835104  0.214718009
C  0.823706049  0.768873900 -0.214728984

