%NProcShared=4
#p b3lyp/6-311+G(3df) freq symmetry=Loose

 b3lyp opt

2 1
C  0.241571997 -0.196998118  0.834036074
C  0.655137564  0.451161739 -0.400037053
C -0.159014320 -0.752536180 -0.448536428
C -0.737695241  0.498373559  0.014537406

