#p b3lyp/6-311+G(3df) freq

 b3lyp opt

2 1
C  1.995418431  0.463160266  0.291783632
C -1.995438860 -0.463082211 -0.291771708
C -0.596871539 -0.138500527 -0.087309734
C  0.596890967  0.138422473  0.087296809

