%NProcShared=4
#p b3lyp/6-311+G(3df) freq symmetry=Loose

 b3lyp opt

2 1
C -0.589993665  0.852506649  0.082245628
C  0.874028140  0.560629827 -0.022053333
C  1.271386658 -0.655075970 -0.112551668
C -1.426844944 -0.118604770  0.079593925
C -0.128577189 -0.639455736 -0.027234552

