%NProcShared=5
#p b3lyp/6-311+G(3df) freq symmetry=Loose

 b3lyp opt

2 3
C -0.129588835 -0.000859047 -0.069565344
C  0.118332402  0.000611804  1.274115388
C  0.456722063  0.000200299 -1.418286605
C  1.771455536  0.004480946 -0.877791942
C  1.239629833  0.003598998  0.493328503

