%NProcShared=4
#p b3lyp/6-311+G(3df) freq symmetry=Loose

 b3lyp opt

2 3
C -1.717749552 -0.651150321 -0.499518344
C  0.871730510  0.059926527 -0.844197826
C  1.192974702 -0.011687580  0.485966809
C -0.457998168 -0.020804155 -0.178987813
C  0.111041510  0.623714527  1.036738174

