%NProcShared=4
#p b3lyp/6-311+G(3df) freq symmetry=Loose

 b3lyp opt

2 1
C  0.179457686 -0.651155180 -0.082748077
C -0.223616000 -2.045644000 -0.022626000
C  1.253508857  0.329904704 -0.363307091
C -1.084798000  1.701840000  0.401870000
C -0.124552543  0.665054476  0.066810168

