#p b3lyp/6-311+G(3df) opt freq symmetry=Loose

 b3lyp opt

2 1
    6       0.0   -0.68    0.000000
    6       0.0    0.68    0.000000
    6      -0.7   -1.9     0.000000
    6      -0.7    1.9     0.000000
    6       1.34   0.0    0.000000

