%NProcShared=4
#p b3lyp/6-311+G(3df) freq symmetry=Loose

 b3lyp opt

1 4
    C   -0.750201    0.148423   -0.909721
    C    0.069354    1.232713   -0.083956
    C    0.017078    0.239305    0.993929
    C    0.719351   -0.910290    0.433440
    C    0.796037    0.094147   -0.633773
    C   -0.851619   -0.804300    0.200080

