%NProcShared=4
#p b3lyp/6-311+G(3df) freq symmetry=Loose

 b3lyp opt

1 2
    C   -0.096873    0.021179   -0.093928
    C    1.530644    0.540428    1.477272
    C    0.147180    0.282156    1.281179
    C   -1.048240   -0.281314   -1.011973
    C    1.286177    0.279971    0.102333
    C    2.480639    0.844828    2.396163

