%NProcShared=4
#p b3lyp/6-311+G(3df) freq symmetry=Loose

 b3lyp opt

2 3
C  1.239049994 -0.556570531  0.449857529
C -1.154188714 -0.047717019  0.844369510
C  0.950352240  0.039289927 -0.695248837
C -1.020227152  0.458277068 -0.370409875
C -0.084861781  0.604287550 -1.294226539
C  0.069874413 -0.497566996  1.065659212

