%NProcShared=4
#p b3lyp/6-311+G(3df) freq symmetry=Loose

 b3lyp opt

1 2
    C   -0.791074    0.055190   -0.943428
    C    0.195365    1.417604    0.071857
    C   -0.058347    0.310096    0.882447
    C    0.721448   -0.962427    0.464695
    C    0.669207    0.023337   -0.650997
    C   -0.736599   -0.843802    0.175425

