%NProcShared=4
#p b3lyp/6-311+G(3df) freq symmetry=Loose

 b3lyp opt

2 1
C  1.010071970  0.926300358  0.936572354
C  1.874113666  1.680285835  1.760316266
C -0.332549129  0.589083913  0.743295934
C  0.990647871  0.058540913 -0.159018066
C -0.396329416 -0.310051024 -0.398892376
C -1.198362944 -0.975288825 -1.183886402
C -1.947593019 -1.968871171 -1.698386709

