%NProcShared=4
#p b3lyp/6-311+G(3df) freq symmetry=Loose

 b3lyp opt

1 2
    C    1.030591    0.957894    0.948262
    C    1.857428    1.726559    1.709246
    C   -0.297084    0.557109    0.730091
    C    0.955785    0.054953   -0.124140
    C   -0.385688   -0.358639   -0.355001
    C   -1.184431   -1.100994   -1.089967
    C   -1.976601   -1.836880   -1.818490

