%NProcShared=4
#p b3lyp/6-311+G(3df) freq symmetry=Loose

 b3lyp opt

2 3
    C   -0.675872   -1.850526    1.439895
    C    0.484127    1.135732   -0.966229
    C   -0.310586   -0.767647    0.632446
    C   -0.785741    0.594350    0.735080
    C    1.092576    0.030449   -1.314501
    C    0.585190   -0.764817   -0.439303
    C   -0.389694    1.622457   -0.087386

