%NProcShared=4
#p b3lyp/6-311+G(3df) freq symmetry=Loose

 b3lyp opt

1 2
    C   -1.390800    0.005574   -2.110077
    C   -2.124932    0.008204   -3.212799
    C   -0.700172   -0.014014    2.524799
    C    1.326848    0.001983    0.678392
    C    0.080224    0.000710    0.013520
    C   -0.694235    0.003119   -1.072278
    C    0.077658   -0.006014    1.423212

