%NProcShared=4
#p b3lyp/6-311+G(3df) freq symmetry=Loose

 b3lyp opt

1 4
    C    1.219944   -0.472184    0.248005
    C    0.895148    0.849607    0.499399
    C   -0.565483   -0.207224    0.359184
    C   -0.449494    1.214183    0.190444
    C   -1.209436    2.299407   -0.059268
    C   -0.050946   -2.415899   -0.956149
    C    0.160268   -1.267888   -0.281616

