#p b3lyp/6-311++G(3df,2p) opt freq symmetry=Loose

 b3lyp opt

0 3
    6       1.479000    0.060094    0.000
    6       0.207016   -0.127447    0.000
    6      -1.126507    0.035667    0.000
    1      -1.578282    1.018870    0.000
    1      -1.778774   -0.828755    0.000

