#p b3lyp/6-311++G(3df,2p) opt freq symmetry=Loose

Title Card Required

0 3
    6       0.00   0.00   0.00
    6       1.17   0.00   0.00
    6      -1.17   0.00   0.00
    1      -2.25   0.00   0.00
    1       2.25   0.00   0.00

