#p b3lyp/6-311++G(3df,2p) opt freq symmetry=Loose

 b3lyp opt

0 1
    6       1.12      0.000  0.000
    6      -0.20     0.000  0.000
    6      -1.48     0.000  0.000
    1       1.69     0.924  0.000
    1       1.69    -0.924  0.000

