#p b3lyp/6-311++G(3df,2p) opt freq symmetry=Loose

Title Card Required

0 1
    6       0.00    0.00    0.000000
    6       1.10    0.66    0.000000
    6      -1.10   -0.66    0.000000
    1       1.25    1.73    0.000000
    1      -1.25   -1.73    0.000000

