#p b3lyp/6-311++G(3df,2p) opt freq symmetry=Loose

Title Card Required

0 1
    6       0.00   0.05   0.00
    6       1.27  -0.12   0.00
    6      -1.27  -0.12   0.00
    1      -2.05   0.62   0.00
    1       2.05   0.62   0.00

