#p b3lyp/6-311++G(3df,2p) opt freq symmetry=Loose

 b3lyp opt

0 3
    6      -1.169580   -0.444250    0.000
    6      -0.151861    0.442248    0.000
    6       1.115393   -0.076881    0.000
    1       1.593942   -1.040568    0.000
    1      -0.357651    1.513865    0.000

