%NProcShared=1
#p b3lyp/6-311++G(3df,2p) freq symmetry=Loose

 b3lyp opt

0 2
C  0.433391304 -0.761689293 -0.000000000
C  0.361425696  0.814275293 -0.000000000
N -0.633743000 -0.020794000  0.000000000

