%NProcShared=1
#p b3lyp/6-311++G(3df,2p) freq symmetry=Loose

 b3lyp opt

0 4
    N    0.011854   -0.000000   -0.000000
    C   -1.242924    0.000000    0.000000
    C    1.231070    0.000000    0.000000

