%NProcShared=1
#p b3lyp/6-311++G(3df,2p) freq symmetry=Loose

 b3lyp opt

0 2
C  1.411482000  0.006736000  0.000000000
C  0.023481000  0.017450000  0.000000000
N -1.161391000  0.027566000  0.000000000

