%NProcShared=1
#p b3lyp/6-311++G(3df,2p) freq symmetry=Loose

 b3lyp opt

0 2
    C    1.743482    1.116588    1.121183
    C    0.760473    0.279126    1.322198
    C   -0.024284   -0.585669    2.344747
    N   -0.327886   -0.549539    1.114624

