%NProcShared=1
#p b3lyp/6-311++G(3df,2p) freq symmetry=Loose

 b3lyp opt

0 4
    N    1.705309    1.093960    1.085306
    C    0.743208    0.247837    1.399173
    C    0.000709   -0.577827    2.398425
    C   -0.297441   -0.503464    1.019848

