%NProcShared=1
#p b3lyp/6-311++G(3df,2p) freq symmetry=Loose

 b3lyp opt

0 2
C -0.534241000 -0.498727000  0.183282000
C -0.433545000 -0.050802000 -1.193691000
C  0.513574079  0.472590494 -0.226153215
N  0.379774503  0.020802577  1.062564184

