%NProcShared=1
#p b3lyp/6-311++G(3df,2p) freq symmetry=Loose

 b3lyp opt

0 2
    C    0.296643    1.663303   -0.000419
    C    0.008895    0.224535    0.001566
    C    0.237334   -1.050876    0.001313
    C    0.519918   -2.303146    0.010064
    N   -0.911540    1.255666    0.004775

