%NProcShared=1
#p b3lyp/6-311++G(3df,2p) freq symmetry=Loose

 b3lyp opt

0 4
C -0.761791000  0.853686000 -0.017072000
C  0.737193000  0.815321000  0.003949000
C -0.062501502 -0.775523116  0.010955994
C -1.339303277 -0.374906949 -0.011110056
N  1.211041096 -0.446465373  0.024725768

