%NProcShared=1
#p b3lyp/6-311++G(3df,2p) freq symmetry=Loose

 b3lyp opt

0 4
    C    0.221935    1.644103   -0.001108
    C    0.155197    0.215306    0.004060
    C    0.294154   -1.071901    0.004744
    C    0.447831   -2.312637    0.006769
    N   -0.967866    1.314611    0.002834

