%NProcShared=1
#p b3lyp/6-311++G(3df,2p) freq symmetry=Loose

 b3lyp opt

0 4
    C   -2.074924    1.175515    0.000000
    C   -0.749324    1.175515    0.000000
    C    0.528309    1.175515    0.000000
    C    1.786816    1.175515    0.000000
    N   -3.249199    1.175515    0.000000

