%NProcShared=1
#p b3lyp/6-311++G(3df,2p) freq symmetry=Loose

 b3lyp opt

0 4
C  0.168249368 -1.398237830 -1.381972953
C  1.262470322  1.278060561  0.787626389
C  0.154302736  0.594608836  0.484737231
C -0.320442981 -0.566547139 -0.456579046
N -1.095723953  0.108037063  0.408842468

