%NProcShared=1
#p b3lyp/6-311++G(3df,2p) freq symmetry=Loose

 b3lyp opt

0 2
C -0.026279657 -0.874908118 -0.154207241
N  0.955921012  0.091421722 -0.574282307
C -0.143669657  0.874609882 -0.071797241
C -1.216955251 -0.063424972 -0.382155930
C  0.344563717 -0.027591968  1.081455603

