%NProcShared=4
#p b3lyp/6-311++G(3df,2p) freq symmetry=Loose

 b3lyp opt

0 1
    C    0.000000    0.000000    0.174790
    H    0.000000    0.861670   -0.523961
    H    0.000000   -0.861670   -0.523961

