%NProcShared=4
#p b3lyp/6-311++G(3df,2p) freq symmetry=Loose

 b3lyp opt

2 1
    C    1.019247    0.000181   -0.000002
    C   -0.628391    0.000032    0.000007
    H   -1.171307   -0.988473   -0.000016
    H   -1.173827    0.987194   -0.000016

