%NProcShared=1
#p b3lyp/6-311++G(3df,2p) freq symmetry=Loose

 b3lyp opt

1 2
C -0.000790265  0.866672989  0.000018464
C -0.695525390 -0.286881649  0.000012021
C  0.696038201 -0.285618331  0.000053490
H  1.600212256 -0.881066042  0.000087809
H -1.598616813 -0.883970070 -0.000007516

