%NProcShared=1
#p b3lyp/6-311++G(3df,2p) freq symmetry=Loose

 b3lyp opt

2 1
C -1.329347000 -0.355607000 -0.000032000
C -0.077515000  0.362429000  0.000085000
C  1.096619000 -0.153290000  0.000126013
H  2.106411001 -0.618124999  0.000160054
H -0.240764001  1.498209999  0.000140793

