%NProcShared=1
#p b3lyp/6-311++G(3df,2p) freq symmetry=Loose

 b3lyp opt

2 3
C -0.000540718 -0.000013799 -0.000280283
C  0.548387926 -0.576149757 -1.048649974
C -0.549268208  0.576157555  1.048175257
H -1.009355843  1.060612530  1.929852994
H  1.010857843 -1.060185530 -1.929310994

