%NProcShared=4
#p b3lyp/6-311++G(3df,2p) freq symmetry=Loose

 b3lyp opt

2 3
    C   -1.753669   -0.517321    0.000433
    C   -0.641106    0.354840   -0.000216
    C    0.752406    0.048578    0.001207
    C    1.976596   -0.202083   -0.000534
    H   -1.002281    0.944775   -0.924083
    H   -1.003084    0.951140    0.918746

