%NProcShared=1
#p b3lyp/6-311++G(3df,2p) freq symmetry=Loose

 b3lyp opt

1 4
C  1.266986000 -0.195210000  0.000037000
C  0.139691000 -1.083951000 -0.000334000
C -1.155052963 -0.427317898 -0.000278919
C -0.799502029  0.952306919  0.000153454
C  0.513818972  0.972411922  0.000294420
H  2.325542084 -0.399435766  0.000087386
H -2.121184838 -0.910012549 -0.000516846

