%NProcShared=1
#p b3lyp/6-311++G(3df,2p) freq symmetry=Loose

 b3lyp opt

3 2
C  1.937421650 -0.476297465  0.000020189
C  0.686188453 -0.105543513 -0.000010784
C -0.686278065 -0.105117476 -0.000046588
C -1.937741196 -0.475094549 -0.000080905
C  0.000417944  1.385408006 -0.000021953
H -3.049188738 -0.672696066 -0.000110793
H  3.048746300 -0.674588968  0.000048288

