%NProcShared=4
#p b3lyp/6-311++G(3df,2p) freq symmetry=Loose

 b3lyp opt

1 2
    C   -2.223855   -0.063390   -0.000084
    C   -1.019221    0.027715    0.000195
    C    0.333811    0.120803    0.000138
    C    1.569165   -0.568594   -0.000015
    C    1.551431    0.764648   -0.000126
    H   -3.291348   -0.137512   -0.000455
    H    2.023360   -1.549583   -0.000193

