%NProcShared=4
#p b3lyp/6-311++G(3df,2p) freq symmetry=Loose

 b3lyp opt

1 1
    C    0.000000    0.000000    0.000000
    H    0.000000    1.090878    0.000000
    H    0.944728   -0.545439    0.000000
    H   -0.944728   -0.545439    0.000000

