%NProcShared=4
#p b3lyp/6-311++G(3df,2p) freq IOp(2/17=3) IOp(2/18=3)

 b3lyp opt

1 1
C  1.508193961 -0.030935986  0.000245850
H  2.055085963 -0.109950987 -0.936510477
C  0.186748989  0.135361004  0.000030505
H  2.054793963 -0.109844987  0.937181523
C -1.043704973 -0.562784010 -0.000121755
H -1.338609003 -1.603444999 -0.000108841
C -1.113116970  0.762232989 -0.000207533

