%NProcShared=4
#p b3lyp/6-311++G(3df,2p) freq symmetry=Loose

 b3lyp opt

1 3
    C   -1.540499    0.644285   -0.000298
    H   -1.973847    1.632128    0.002450
    C    1.061465    0.000670   -0.036671
    C   -1.541099   -0.642554   -0.000713
    H   -1.976504   -1.629526    0.002333
    C   -0.223618   -0.000425   -0.005854
    C    2.351191    0.000271    0.108403
    H    3.305828   -0.000222   -0.391505

