%NProcShared=4
#p b3lyp/6-311++G(3df,2p) freq symmetry=Loose

 b3lyp opt

1 3
    C   -1.459215    0.048956   -0.473711
    C    0.564139   -0.038609    0.055522
    C   -0.552973    0.907119    0.167566
    H   -0.705825    1.779589    0.795160
    C   -0.618493   -0.888084    0.152378
    H   -0.841351   -1.753277    0.768889
    C    1.865207   -0.114704   -0.127217
    H    2.755190    0.485616   -0.211279

