%NProcShared=4
#p b3lyp/6-311++G(3df,2p) freq symmetry=Loose

 b3lyp opt

2 3
    C    0.000000    0.000000    0.000000
    H    0.000000    0.741251   -0.987390
    H   -0.741251    0.000000    0.987390
    H    0.000000   -0.741251   -0.987390
    H    0.741251    0.000000    0.987390

