%NProcShared=4
#p b3lyp/6-311++G(3df,2p) freq symmetry=Loose

 b3lyp opt

2 1
    C    0.101882    0.000167    0.000340
    H    0.696460   -0.976310    0.000312
    H   -0.998191   -0.582015   -0.000171
    H   -1.000528    0.578070    0.000342
    H    0.691096    0.979967    0.000007

