%NProcShared=4
#p b3lyp/6-311++G(3df,2p) freq symmetry=Loose

 b3lyp opt

0 1
    C    0.000000    0.000000    0.000000
    H    0.628470    0.628470    0.628470
    H   -0.628470   -0.628470    0.628470
    H   -0.628470    0.628470   -0.628470
    H    0.628470   -0.628470   -0.628470

