%NProcShared=4
#p b3lyp/6-311++G(3df,2p) freq symmetry=Loose

 b3lyp opt

2 1
    C   -0.208675    0.687877   -0.000000
    H   -1.316030    0.969996    0.000000
    C    0.208675   -0.687877    0.000000
    H    1.316030   -0.969996   -0.000000
    C    0.208951    1.873258    0.000000
    C   -0.208951   -1.873258   -0.000000
    H   -0.397057   -2.949853    0.000000
    H    0.397057    2.949853   -0.000000

