%NProcShared=4
#p b3lyp/6-311++G(3df,2p) freq IOp(2/17=3) IOp(2/18=3)

 b3lyp opt

1 2
C  0.843495697 -0.801486836  0.000059146
C  0.843780298  0.801186162 -0.000149866
C -0.616305848  1.076561927 -0.000105992
C -1.345122988  0.000238356  0.000074190
C -0.616688159 -1.076344002  0.000174777
H  1.336089903 -1.238400788  0.874788235
H  1.336434094  1.237925148 -0.874932769
H  1.336529687  1.238153278  0.874465257
H  1.335994310 -1.238628918 -0.874609791

