%NProcShared=1
#p b3lyp/6-311++G(3df,2p) freq symmetry=Loose

 b3lyp opt

2 1
C  0.719271002  0.000030107  0.192019998
H  1.059748991 -0.000045550  1.306463013
C  2.074904992  0.000139981 -0.116194989
C -0.468130346  0.910237862 -0.138147145
H -0.446001273  1.837976864 -0.717014762
C -1.461410995 -0.000103133  0.185651993
H -2.547661985 -0.000172558  0.217735978
C -0.468018652 -0.910266123 -0.138304859
H -0.445775745 -1.837902091 -0.717333213

