%NProcShared=1
#p b3lyp/6-311++G(3df,2p) freq symmetry=Loose

 b3lyp opt

3 4
C  0.000207380  0.445468019  0.000018965
C -1.291868717 -0.277458060 -0.000492093
C  1.291838214 -0.278252902  0.000932024
H  0.000907269  1.220104940 -0.837408892
H -0.000014781  1.221305067  0.836091879
H -1.442642323 -1.415674315 -0.000879950
H  1.441911814 -1.416561708  0.000709992
C -2.552277277  0.088219175 -0.000696797
C  2.552470986  0.086648769  0.002116897

