%NProcShared=4
#p b3lyp/6-311++G(3df,2p) freq IOp(2/17=3) IOp(2/18=3)

 b3lyp opt

3 2
C -0.000028017 -1.087603005 -0.361811991
C  1.179848582 -0.509972682  0.132408437
H  2.145638776 -0.956158209  0.477273184
C  0.729780808  0.917206708 -0.001801339
H  1.415128558  1.774820624 -0.174171049
C -0.729700225  0.917279296 -0.001928668
H -1.414932578  1.774961377 -0.174417952
C -1.179933369 -0.509855318  0.132202563
H -2.145828100 -0.955944773  0.476898784

