%NProcShared=4
#p b3lyp/6-311++G(3df,2p) freq symmetry=Loose

 b3lyp opt

0 4
    H    0.000000    0.000000   -0.937165
    C    0.000000    0.000000    0.156194

