%NProcShared=4
#p b3lyp/6-311++G(3df,2p) freq symmetry=Loose

 b3lyp opt

2 4
    H    0.000000    0.000000    1.676687
    C    0.000000    0.000000    0.534504
    C    0.000000    0.000000   -0.813952

