%NProcShared=4
#p b3lyp/6-311++G(3df,2p) freq symmetry=Loose

 b3lyp opt

3 1
    H    0.000000    0.000000    1.612904
    C    0.000000    0.000000    0.341659
    C    0.000000    1.253760   -0.305238
    C    0.000000   -1.253760   -0.305238

