%NProcShared=4
#p b3lyp/6-311++G(3df,2p) freq symmetry=Loose

 b3lyp opt

3 1
    H    0.001069   -2.012225    0.000000
    C    0.000000   -0.783717    0.000000
    C    0.655718    0.560270    0.000000
    C   -0.655896    0.558818    0.000000

