%NProcShared=4
#p b3lyp/6-311++G(3df,2p) freq symmetry=Loose

 b3lyp opt

1 3
    C   -1.387550    0.000149    0.000015
    C   -0.117676   -0.000276    0.000010
    C    1.136358    0.000099   -0.000072
    H    2.213206    0.000166    0.000281

