%NProcShared=4
#p b3lyp/6-311++G(3df,2p) freq symmetry=Loose

 b3lyp opt

3 3
    H    0.000000    0.000000    1.588768
    C    0.000000    0.000000    0.299969
    C    0.000000    1.229850   -0.282382
    C    0.000000   -1.229850   -0.282382

