%NProcShared=4
#p b3lyp/6-311++G(3df,2p) freq symmetry=Loose

 b3lyp opt

2 4
    H    0.000000    0.000000    1.765156
    C    0.000000    0.000000    0.615289
    C    0.000000    0.835405   -0.454741
    C    0.000000   -0.835405   -0.454741

