%NProcShared=4
#p b3lyp/6-311++G(3df,2p) freq symmetry=Loose

 b3lyp opt

0 4
    H    1.045217   -2.154902    0.000000
    C    0.146056   -1.550807    0.000000
    C    0.000000   -0.168848    0.000000
    C    0.525120    1.067447    0.000000
    C   -0.845379    1.011358    0.000000

