%NProcShared=1
#p b3lyp/6-311++G(3df,2p) freq symmetry=Loose

 b3lyp opt

3 3
H  0.006597146  2.739497317 -0.000000000
C  0.003864910  1.568539644 -0.000000000
C  0.000624995  0.180005496 -0.000000000
C -0.685165143 -1.100898305  0.000000000
C  0.680430143 -1.104084695  0.000000000

