%NProcShared=4
#p b3lyp/6-311++G(3df,2p) freq symmetry=Loose

 b3lyp opt

2 2
    H    0.000000    0.000000   -2.157978
    C    0.000000    0.000000   -1.051121
    C    0.000000    0.819543    0.098583
    C    0.000000    0.000000    1.213618
    C    0.000000   -0.819543    0.098583

