%NProcShared=4
#p b3lyp/6-311++G(3df,2p) freq symmetry=Loose

 b3lyp opt

1 3
    H    0.003158   -2.587666    0.000000
    C    0.001641   -1.507803    0.000000
    C    0.000000   -0.202817    0.000000
    C    0.645783    1.071612    0.000000
    C   -0.647951    1.070286    0.000000

