%NProcShared=4
#p b3lyp/6-311++G(3df,2p) freq symmetry=Loose

 b3lyp opt

0 4
    C   -1.987460    0.187444   -0.000159
    C   -0.690988   -0.041298    0.000296
    C    0.539868   -0.434292   -0.000108
    C    1.784558    0.098946   -0.000027
    H    2.124137    1.135198   -0.000012

