%NProcShared=4
#p b3lyp/6-311++G(3df,2p) freq symmetry=Loose

 b3lyp opt

1 1
    H    2.872565    0.008072    0.000000
    C    1.795981    0.003390    0.000000
    C    0.551402   -0.002345    0.000000
    C   -0.742785   -0.010175    0.000000
    C   -2.083358    0.007785    0.000000

