%NProcShared=4
#p b3lyp/6-311++G(3df,2p) freq symmetry=Loose

 b3lyp opt

2 4
    C    0.166989    0.919367    0.000000
    H    0.145531    2.026992    0.000000
    C   -0.525222   -0.960186    0.000000
    C    0.166989   -0.148506    0.948763
    C    0.166989   -0.148506   -0.948763

