%NProcShared=1
#p b3lyp/6-311++G(3df,2p) freq symmetry=Loose

 b3lyp opt

0 2
C  1.095818355 -0.002831786 -0.003828608
H  2.166389195 -0.005495252 -0.007449472
C -1.312983538  0.003161057  0.004318397
C -0.073822727 -0.752269276  0.000127422
C -0.070079273  0.752416276  0.000114578

