%NProcShared=4
#p b3lyp/6-311++G(3df,2p) freq symmetry=Loose

 b3lyp opt

0 4
    H    2.690852   -0.691640    0.000000
    C    1.615609   -0.679339    0.000000
    C    0.605763    0.226401    0.000000
    C   -0.848279    0.116968    0.000000
    C   -1.684384   -0.925356    0.000000
    C   -0.137185    1.376600    0.000000

