%NProcShared=4
#p b3lyp/6-311++G(3df,2p) freq symmetry=Loose

 b3lyp opt

2 2
    C   -2.264153   -0.612179    0.000071
    C   -1.285461    0.382933   -0.000123
    C    0.020681    0.194738   -0.000071
    C    1.293412   -0.013379   -0.000013
    C    2.527589   -0.186246    0.000061
    H   -1.752821    1.405575   -0.000319

