%NProcShared=4
#p b3lyp/6-311++G(3df,2p) freq symmetry=Loose

 b3lyp opt

0 4
    C    0.956432    0.000375   -0.267513
    C   -0.115192   -1.063391   -0.177304
    C   -1.113163    0.001021   -0.244833
    C   -0.114464    1.064224   -0.171932
    C    0.047820   -0.002292    0.911956
    H    2.031418    0.000077   -0.309063

