%NProcShared=1
#p b3lyp/6-311++G(3df,2p) freq symmetry=Loose

 b3lyp opt

3 3
C  1.916541001 -0.000047589 -0.000044784
C  0.526790996 -0.000031037 -0.000021979
C -0.611672775  0.858500020 -0.000003799
C -1.731765998 -0.000004139  0.000015083
C -0.611693225 -0.858534977 -0.000002794
H  3.070743005 -0.000061335 -0.000063724

