%NProcShared=4
#p b3lyp/6-311++G(3df,2p) freq symmetry=Loose

 b3lyp opt

0 4
    C    2.063791    0.001070   -0.021099
    C    0.687729    0.001072   -0.106241
    C   -0.433791   -0.914290    0.133074
    C   -1.459676   -0.002017   -0.108422
    C   -0.435587    0.912917    0.132160
    H   -2.527979   -0.002863   -0.221209

