%NProcShared=4
#p b3lyp/6-311++G(3df,2p) freq symmetry=Loose

 b3lyp opt

2 4
    C    0.821307   -0.756928   -0.042371
    C   -0.474084   -0.922021    0.044004
    C   -1.296667    0.243106   -0.021729
    C   -0.011143    0.811709    0.011145
    C    1.352230    0.533605    0.013140
    H   -2.349855    0.543169   -0.025130

