%NProcShared=1
#p b3lyp/6-311++G(3df,2p) freq symmetry=Loose

 b3lyp opt

1 3
H -1.431170000 -1.491737000  0.000306000
C -1.074183000 -0.457796000  0.000013000
C  0.288381990 -0.130636975  0.000079513
C  1.637848941 -0.506093847  0.000374375
C  1.335108023  0.802835941 -0.000092711
C -1.948626954  0.540313881 -0.000425177

