%NProcShared=4
#p b3lyp/6-311++G(3df,2p) freq symmetry=Loose

 b3lyp opt

3 3
    H    1.526975    1.190929    0.000000
    C    0.407271    0.887791    0.000000
    C   -0.019844   -0.520086    0.000000
    C   -0.213974   -1.310612    1.186109
    C   -0.213974   -1.310612   -1.186109
    C   -0.213974    2.055030    0.000000

