%NProcShared=4
#p b3lyp/6-311++G(3df,2p) freq symmetry=Loose

 b3lyp opt

0 4
    H    0.341087   -3.209623    0.000000
    C   -0.032219   -2.210799    0.000000
    C    0.039418   -0.965551    0.000000
    C    0.000391    0.339580    0.000000
    C   -0.032219    1.685854    0.657260
    C   -0.032219    1.685854   -0.657260

