%NProcShared=4
#p b3lyp/6-311++G(3df,2p) freq symmetry=Loose

 b3lyp opt

0 4
    C   -0.303932   -1.002834   -0.191618
    C   -1.084348    0.167288    0.094785
    C    0.003448    1.023913   -0.290777
    C    0.791463   -0.153651   -0.670750
    C    0.449616   -0.026496    0.764923
    H    0.845898   -0.039816    1.760463

