%NProcShared=4
#p b3lyp/6-311++G(3df,2p) freq symmetry=Loose

 b3lyp opt

0 4
    C    1.837545   -0.103133    0.089193
    C    0.543487   -0.051847   -0.034532
    C   -0.591109    0.882970   -0.192506
    C   -1.576484    0.054187    0.280183
    C   -0.661152   -0.874161   -0.168828
    H    2.686273    0.551901    0.158943

