%NProcShared=1
#p b3lyp/6-311++G(3df,2p) freq symmetry=Loose

 b3lyp opt

2 4
H  0.000637823  1.544173165 -0.002343636
C  0.000180264  0.409775009 -0.000649389
C -1.268120761 -0.065821295 -0.000424387
C -2.501436833 -0.266228799 -0.000597039
C  1.268097213 -0.066842826  0.000547762
C  2.501251215 -0.268243768  0.001320523

