%NProcShared=4
#p b3lyp/6-311++G(3df,2p) freq symmetry=Loose

 b3lyp opt

1 1
    H   -1.782845   -1.381706    0.001465
    C   -1.322560   -0.378369   -0.000134
    C    0.024234   -0.196377   -0.000437
    C    1.252573    0.000649   -0.000294
    C    2.559825    0.183436    0.000421
    C   -2.216931    0.620946    0.000199

