%NProcShared=4
#p b3lyp/6-311++G(3df,2p) freq symmetry=Loose

 b3lyp opt

0 4
    C   -1.894373    0.030727    0.000188
    C   -0.608967   -0.182438   -0.000220
    C    0.470259    0.938539   -0.000443
    C    1.443770   -0.019761    0.000235
    C    0.530287   -1.101751    0.000034
    H    0.354144    2.008111    0.001230

