%NProcShared=4
#p b3lyp/6-311++G(3df,2p) freq symmetry=Loose

 b3lyp opt

1 3
    H    0.000000    0.000000    3.236160
    C    0.000000    0.000000    2.165228
    C    0.000000    0.000000    0.955063
    C    0.000000    0.000000   -0.394107
    C    0.000000    0.674765   -1.632772
    C    0.000000   -0.674765   -1.632772

