%NProcShared=4
#p b3lyp/6-311++G(3df,2p) freq symmetry=Loose

 b3lyp opt

0 2
    C    1.117986    0.160578    0.000347
    C   -0.002467    0.440614   -0.939437
    C   -1.119560    0.151454   -0.000050
    C   -0.002966    0.445298    0.936584
    C    0.005673   -0.873509    0.001673
    H    0.008009   -1.946608    0.005293

