%NProcShared=4
#p b3lyp/6-311++G(3df,2p) freq symmetry=Loose

 b3lyp opt

0 1
    S    0.951648    0.000000    0.000000
    S   -0.951648    0.000000    0.000000

