%NProcShared=4
#p b3lyp/6-311++G(3df,2p) freq symmetry=Loose

 b3lyp opt

1 4
    S    1.029760    0.000000    0.000000
    S   -1.029760    0.000000    0.000000

