%NProcShared=4
#p b3lyp/6-311++G(3df,2p) freq symmetry=Loose

 b3lyp opt

1 2
    S   -0.000054    0.268356   -0.429866
    S   -1.728477   -0.134271    0.215083
    S    1.728530   -0.134084    0.214784

