%NProcShared=4
#p b3lyp/6-311++G(3df,2p) freq symmetry=Loose

 b3lyp opt

1 2
S -0.905480000 -0.676438000  0.000000000
S  1.104846079 -0.534691217  0.000000000
S -0.199366079  1.211128217 -0.000000000

