%NProcShared=4
#p b3lyp/6-311++G(3df,2p) freq symmetry=Loose

 b3lyp opt

0 3
    S   -0.726764   -0.542922    0.000000
    S    1.238373   -0.899840    0.000000
    S   -0.511610    1.442761    0.000000

