%NProcShared=4
#p b3lyp/6-311++G(3df,2p) freq symmetry=Loose

 b3lyp opt

0 3
S -0.099985539 -0.361529293  2.457266452
S  0.222258000  0.685488000  0.858576000
S -0.222227926 -0.685395413 -0.858450905
S  0.099955465  0.361436706 -2.457391548

