%NProcShared=4
#p b3lyp/6-311++G(3df,2p) freq symmetry=Loose

 b3lyp opt

0 3
S -0.000170966  1.223160913  1.567030484
S -0.000134814 -0.660278981  1.272818140
S  0.000134814 -0.715726019 -1.231279140
S  0.000170966  1.152845087 -1.608570484

