%NProcShared=4
#p b3lyp/6-311++G(3df,2p) freq symmetry=Loose

 b3lyp opt

1 2
S  0.000000000  1.193476022  1.592245735
S  0.000000000 -0.631814982  1.183989129
S -0.000000000 -0.683513018 -1.143670129
S -0.000000000  1.121851978 -1.632564735

