%NProcShared=4
#p b3lyp/6-311++G(3df,2p) freq symmetry=Loose

 b3lyp opt

1 2
S -0.094709246 -0.345180632  2.446858604
S  0.207324000  0.642732000  0.858648000
S -0.207196478 -0.642331746 -0.858418208
S  0.094581724  0.344779378 -2.447088396

