%NProcShared=4
#p b3lyp/6-311++G(3df,2p) freq symmetry=Loose

 b3lyp opt

0 3
S  1.170576911  0.954600678  0.364436671
S -0.496741911 -0.449235678  1.551555329
S  0.301445819  0.283043350 -1.322295604
S -1.155007819 -0.943250350 -0.285311396

