%NProcShared=4
#p b3lyp/6-311++G(3df,2p) freq symmetry=Loose

 b3lyp opt

1 2
    S    0.100007   -1.472763    0.000049
    S   -1.372716   -0.000007    0.011664
    S    0.099993    1.472763    0.000050
    S    1.572716    0.000007   -0.011764

