%NProcShared=4
#p b3lyp/6-311++G(3df,2p) freq symmetry=Loose

 b3lyp opt

1 2
    S    0.078531   -1.220524   -0.450015
    S   -1.368235   -0.000008    0.521112
    S    0.078519    1.220525   -0.450014
    S    1.611185    0.000007    0.378916

