%NProcShared=4
#p b3lyp/6-311++G(3df,2p) freq symmetry=Loose

 b3lyp opt

1 2
S -0.640421136 -0.095816441 -0.952679381
S  0.647528906  0.011797486  0.724838812
S  0.381398875 -0.115025223  3.975167726
S  0.398369667  0.128828763 -2.527202178
S -0.654694313  0.070193416  2.393751020

