%NProcShared=4
#p b3lyp/6-311++G(3df,2p) freq symmetry=Loose

 b3lyp opt

0 1
S -0.244313416  0.629023438 -0.463508847
S  1.404316452  0.027018458  0.727179398
S -0.414983523  0.267641908  3.589749986
S -0.385821517 -0.284392426 -2.146927720
S -0.227016995 -0.639312378  1.907384183

