%NProcShared=4
#p b3lyp/6-311++G(3df,2p) freq symmetry=Loose

 b3lyp opt

1 4
    S    0.086365   -0.737388    1.711830
    S   -0.995562   -0.283092   -1.481661
    S    0.295930    1.229114   -1.633534
    S    0.209484    1.161904    1.853842
    S    0.403784   -1.370539   -0.450477

