%NProcShared=4
#p b3lyp/6-311++G(3df,2p) freq symmetry=Loose

 b3lyp opt

1 2
    S    0.393240   -0.878785    1.831521
    S   -0.306410    0.656389   -1.032440
    S   -0.209091    0.591892   -2.932313
    S   -0.448221    0.731558    2.378624
    S    0.570481   -1.101055   -0.245392

