%NProcShared=4
#p b3lyp/6-311++G(3df,2p) freq symmetry=Loose

 b3lyp opt

0 3
    S    0.052311    0.936646   -0.684042
    S    1.357128    0.026559    0.727367
    S   -0.693135    0.334122    3.386308
    S   -0.662728   -0.362473   -1.944423
    S    0.078604   -0.934875    2.128667

