%NProcShared=4
#p b3lyp/6-311++G(3df,2p) freq symmetry=Loose

 b3lyp opt

1 4
    S   -0.677650   -0.540271   -1.568798
    S    0.146925    0.783830   -0.102369
    S    2.452928   -0.199092    1.648549
    S   -2.433422    0.298325   -1.660816
    S    0.511220   -0.342792    1.683433

