%NProcShared=4
#p b3lyp/6-311++G(3df,2p) freq symmetry=Loose

 b3lyp opt

1 2
    S   -0.228743   -0.824206    0.717288
    S    0.740308    0.544149   -1.803513
    S   -1.172884    0.136128   -1.284691
    S   -0.957512   -0.262900    2.334743
    S    1.618831    0.406829    0.036172

