%NProcShared=4
#p b3lyp/6-311++G(3df,2p) freq symmetry=Loose

 b3lyp opt

1 2
    S    0.068980   -0.476576   -0.954328
    S    1.487142    0.295721    2.449662
    S   -0.113151   -0.697403    2.510127
    S   -0.355288    1.522203   -0.004186
    S    1.896596   -0.897846   -0.770697
    S    1.315248    1.941151    0.920467

