%NProcShared=4
#p b3lyp/6-311++G(3df,2p) freq symmetry=Loose

 b3lyp opt

0 3
    S   -1.478579    0.614384   -0.902712
    S    2.373409   -1.068134    3.242828
    S   -2.098395   -0.346783    0.636334
    S    2.011985   -0.491630    1.434335
    S    0.709387    1.281280    1.577168
    S    0.393244    1.782150   -0.311819

