%NProcShared=4
#p b3lyp/6-311++G(3df,2p) freq symmetry=Loose

 b3lyp opt

0 1
    S   -1.485172    0.560174    1.054540
    S    2.995494    0.722437    0.783894
    S   -1.696926   -0.605938   -0.475839
    S    1.514518   -0.791020    0.685781
    S    0.292856    0.088951    2.078951
    S    4.735478    0.025333    1.255663

