%NProcShared=4
#p b3lyp/6-311++G(3df,2p) freq symmetry=Loose

 b3lyp opt

1 2
S  1.267963741  0.430428771  0.748111925
S -1.339946678  0.810333938 -1.328308229
S  0.043622678 -0.525574271  2.110929229
S -1.863928481  0.250026114  1.937965421
S  0.567604481  0.034733553 -1.155344421
S -2.564287741 -0.145669104  0.034509075

