%NProcShared=4
#p b3lyp/6-311++G(3df,2p) freq symmetry=Loose

 b3lyp opt

0 3
S  3.700668985 -0.581392831  0.550107602
S  2.071315843 -0.407855069 -0.475772600
S -3.680346161 -0.680784502 -0.571988777
S  0.836027296  1.084828356  0.549662017
S -2.056850252 -0.490550612  0.460197886
S -0.870815712  1.075754658 -0.512205128

