%NProcShared=4
#p b3lyp/6-311+G(3df) freq symmetry=Loose

 b3lyp opt

1 2
    C    0.600081   -0.944361    0.000000
    C    1.491727    0.000000    0.000000
    C   -0.717358   -1.195310    0.000000
    C    0.600081    0.944361    0.000000
    C   -1.257172    0.000000    0.000000
    C   -0.717358    1.195310    0.000000

