%NProcShared=4
#p b3lyp/6-311++G(3df,2p) freq

 b3lyp opt

2 3
    S    0.466286    0.000000    0.000000
    C    2.059608    0.000000    0.000000

