%NProcShared=4
#p b3lyp/6-311++G(3df,2p) freq

 b3lyp opt

1 2
    S    0.608877    0.000000    0.000000
    C    2.095075    0.000000    0.000000

