%NProcShared=4
#p b3lyp/6-311++G(3df,2p) freq

 b3lyp opt

1 2
    S    0.519848    0.000000    0.000000
    C    2.006046    0.000000    0.000000

