%NProcShared=4
#p b3lyp/6-311++G(3df,2p) freq

 b3lyp opt

2 4
S -1.438595876  0.408600172  0.013124758
S  1.129419499 -0.239822965 -0.276580987
C  0.129721148  0.898855443  0.565502118
C -0.438069490 -0.727706149 -0.826927704
H -0.718710815 -1.531665160 -1.515162633

