%NProcShared=4
#p b3lyp/6-311++G(3df,2p) freq

 b3lyp opt

1 3
S  1.060058971 -0.039977565  0.105344168
C -0.538547752  0.238898856  0.005981893
C -1.765423000  0.310039000 -0.088655000
H  1.447890967  1.250606812  0.304161912

