%NProcShared=4
#p b3lyp/6-311++G(3df,2p) freq

 b3lyp opt

2 2
    S   -2.196686   -0.222390   -0.362009
    S    0.684309   -0.783938    0.244230
    C    1.636483    0.412409    0.887571
    C   -0.793926    0.312163    0.193955
    H   -0.686457    1.345289    0.556868

