%NProcShared=4
#p b3lyp/6-311++G(3df,2p) freq

 b3lyp opt

2 4
    S   -1.118983   -0.199076    1.096598
    S    0.895941    0.414827   -1.350129
    C   -0.076882   -0.073657   -0.208059
    C   -2.532209   -0.692989    0.448343
    H    1.553361   -0.786277   -1.571724

