%NProcShared=4
#p b3lyp/6-311++G(3df,2p) freq

 b3lyp opt

2 2
    S   -0.325291    0.023305    0.000000
    C    1.215113   -0.192433    0.000000
    H    0.324309    1.372407    0.000000

