%NProcShared=4
#p ccsd(t)/6-311+G(3df) scf(MaxCyc=300) guess(Huckel)

 ccsd(t) iener

2 3
    C    0.000036   -0.000155    0.000000
    C    1.179455    0.469511    0.000000
    C   -1.179491   -0.469356    0.000000

