%NProcShared=4
#p ccsd(t)/6-311+G(3df) scf(MaxCyc=300) guess(Huckel)

 ccsd(t) iener

2 3
    C    0.553948   -0.541789    0.184750
    C   -0.554034    0.541875   -0.184457
    C   -0.823642   -0.768898    0.214577
    C    0.823728    0.768811   -0.214870

