%NProcShared=4
#p ccsd(t)/6-311+G(3df) scf(MaxCyc=300) guess(Huckel)

 ccsd(t) iener

2 1
    C    0.241979   -0.196698    0.834190
    C    0.654933    0.450919   -0.400093
    C   -0.159060   -0.752479   -0.448606
    C   -0.737852    0.498259    0.014509

