%NProcShared=4
#p ccsd(t)/6-311+G(3df) scf(MaxCyc=300) guess(Huckel)

 ccsd(t) iener

2 1
    C    1.995255    0.463594    0.291655
    C   -1.995487   -0.463317   -0.291628
    C   -0.596783   -0.138500   -0.087358
    C    0.597014    0.138223    0.087330

