%NProcShared=4
#p ccsd(t)/6-311+G(3df) scf(MaxCyc=300) guess(Huckel)

 ccsd(t) iener

2 1
    C   -0.166669    1.212033    0.752006
    C    0.000020   -0.000003    0.000087
    C    0.400654    0.059193   -1.377662
    C   -0.234005   -1.271223    0.625568

