%NProcShared=4
#p ccsd(t)/6-311+G(3df) scf(MaxCyc=300) guess(Huckel)

 ccsd(t) iener

2 3
    C    0.000023    0.000013    0.000061
    C   -2.514524    0.152639    0.279125
    C   -1.281511    0.077768    0.142377
    C    2.514515   -0.152665   -0.279244
    C    1.281498   -0.077756   -0.142319

