%NProcShared=4
#p ccsd(t)/6-311+G(3df) scf(MaxCyc=300) guess(Huckel)

 ccsd(t) iener

2 1
    C    0.723932   -0.850259    0.521284
    C    0.541102    0.857145   -1.120016
    C   -0.299311   -0.175845   -0.828708
    C   -0.774609   -0.955988    0.285432
    C    0.621597    0.648737    0.347413
    C   -0.812711    0.476210    0.794594

