%NProcShared=4
#p ccsd(t)/6-311+G(3df) scf(MaxCyc=300) guess(Huckel)

 ccsd(t) iener

2 1
    C    0.146338   -1.124644   -0.146774
    C    0.619580    0.952976   -0.139507
    C    0.049635    0.076827   -1.140467
    C   -0.717619   -0.429050    0.782764
    C    0.716684   -0.248348    0.854249
    C   -0.814617    0.772239   -0.210265

