%NProcShared=4
#p ccsd(t)/6-311+G(3df) scf(MaxCyc=300)

 ccsd(t) iener

1 2
    C    0.653371   -0.658648   -0.239585
    C   -0.578096   -1.131560   -0.446978
    C   -1.177225    0.201088    0.050392
    C   -0.060663    0.176684    1.023532
    C   -0.022534    0.817687   -0.642423
    C    1.185146    0.594748    0.255062

