%NProcShared=4
#p ccsd(t)/6-311+G(3df) scf(MaxCyc=300) guess(Huckel)

 ccsd(t) iener

2 3
    C    0.455139   -0.697172   -0.172408
    C   -0.930702   -0.650913    0.175208
    C    0.930668    0.650949   -0.175249
    C   -0.455083    0.697162    0.172692
    C    2.108164    1.474588   -0.397120
    C   -2.108186   -1.474614    0.396877

