%NProcShared=4
#p ccsd(t)/6-311+G(3df) scf(MaxCyc=300) guess(Huckel)

 ccsd(t) iener

2 3
    C    0.988102    0.397736    0.010664
    C   -0.488220    0.784098   -0.530562
    C   -0.988127   -0.397517   -0.010242
    C    0.488290   -0.784362    0.529987
    C   -0.632403   -1.495130    0.657710
    C    0.632358    1.495175   -0.657556

