%NProcShared=4
#p ccsd(t)/6-311+G(3df) scf(MaxCyc=300)

 ccsd(t) iener

1 4
    C    0.624072   -0.830252    0.000000
    C    1.650815    0.000000   -0.000000
    C   -0.731190   -1.176246   -0.000000
    C    0.624072    0.830252    0.000000
    C   -1.436578    0.000000   -0.000000
    C   -0.731190    1.176246   -0.000000

