%NProcShared=4
#p ccsd(t)/6-311+G(3df) scf(MaxCyc=300) guess(Huckel)

 ccsd(t) iener

2 1
    C   -0.334105    0.927068   -0.629670
    C   -1.430433    0.247545   -0.546325
    C   -0.916047   -0.710662    0.152117
    C    0.916094    0.710704   -0.152128
    C    1.430372   -0.247536    0.546301
    C    0.334118   -0.927121    0.629706

