%NProcShared=4
#p ccsd(t)/6-311+G(3df) scf(MaxCyc=300) guess(Huckel)

 ccsd(t) iener

2 3
    C    0.717504   -0.742222   -0.271234
    C   -0.539806   -1.119254   -0.440206
    C   -1.170428    0.216468    0.055477
    C   -0.076751    0.216195    1.085740
    C   -0.036328    0.889487   -0.661577
    C    1.105808    0.539325    0.231799

