%NProcShared=4
#p ccsd(t)/6-311+G(3df) scf(MaxCyc=300)

 ccsd(t) iener

2 3
    C    1.013457    0.941886    0.932695
    C    1.869492    1.736225    1.720182
    C   -0.318050    0.553253    0.729112
    C    0.957679    0.041880   -0.140771
    C   -0.380813   -0.353343   -0.350655
    C   -1.195868   -1.110638   -1.100695
    C   -1.945897   -1.809262   -1.789866

