%NProcShared=4
#p ccsd(t)/6-311+G(3df) scf(MaxCyc=300) guess(Huckel)

 ccsd(t) iener

2 1
    C    1.141894    1.259334    0.543505
    C    0.346295   -0.999023   -0.058895
    C   -0.841957   -0.069379    0.171988
    C    0.901034   -0.644927   -1.399693
    C   -2.233816   -0.151923    0.429549
    C    0.214515    0.618685   -0.633705
    C    0.472036   -0.012766    0.947251

