%NProcShared=4
#p ccsd(t)/6-311+G(3df) scf(MaxCyc=300)

 ccsd(t) iener

1 2
    C   -2.618217   -2.295188    1.604007
    C    2.828105    1.974215   -1.673436
    C    1.768818    1.493743   -1.075270
    C   -1.862058   -1.351423    1.105777
    C   -0.948414   -0.649617    0.556778
    C    0.867958    0.772751   -0.530064
    C   -0.036192    0.055517    0.012206

