%NProcShared=6
#p ccsd(t)/6-311+G(3df) scf(MaxCyc=300)

 ccsd(t) iener

1 4
    C    1.034265    0.961124    0.951800
    C    1.836119    1.706054    1.689900
    C   -0.306109    0.560131    0.734305
    C    0.962832    0.051530   -0.130887
    C   -0.375714   -0.349342   -0.345780
    C   -1.180810   -1.097796   -1.086507
    C   -1.970583   -1.831700   -1.812830

