%NProcShared=4
#p ccsd(t,maxcyc=200)/6-311++G(3df,2p)

 ccsd(t) iener

0 1
    C   -0.155666   -0.079194    0.000000
    C   -1.518255    0.124331   -0.000000
    O    1.004833   -0.251824    0.000000

