%NProcShared=4
#p ccsd(t,maxcyc=200)/6-311++G(3df,2p)

 ccsd(t) iener

1 2
C -0.164720000  0.112766000 -0.980263000
C  0.472551000 -0.073359000  1.583415000
O  0.096914000  0.014112000  0.160634000

