%NProcShared=4
#p ccsd(t,maxcyc=200)/6-311++G(3df,2p)

 ccsd(t) iener

1 4
    C    1.269251    0.632627    0.000000
    C    0.106473   -0.046889   -0.000000
    O   -0.877982   -0.622971   -0.000000

