%NProcShared=4
#p ccsd(t,maxcyc=200)/6-311++G(3df,2p)

 ccsd(t) iener

0 1
    C    0.240225    0.870643    0.000000
    C    0.820217   -0.503169    0.000000
    O   -0.497422   -0.250126    0.000000

