%NProcShared=4
#p ccsd(t,maxcyc=200)/6-311++G(3df,2p)

 ccsd(t) iener

0 3
    C   -0.119305   -0.004998    0.000000
    C   -1.488732   -0.058162   -0.000000
    O    1.045571    0.039985    0.000000

