%NProcShared=4
#p ccsd(t,maxcyc=200)/6-311++G(3df,2p)

 ccsd(t) iener

1 4
    C    0.810258    0.018963   -0.311076
    C    2.052955    0.268977    0.160201
    C   -0.494211   -0.079582    0.172816
    O   -1.616132   -0.250024    0.075817

