%NProcShared=4
#p ccsd(t,maxcyc=200)/6-311++G(3df,2p)

 ccsd(t) iener

1 4
    C    1.057029   -0.815013   -0.097839
    C    1.210573    0.601225    0.022743
    C   -0.130724    0.024452    0.030001
    O   -1.323671    0.148378    0.093790

