%NProcShared=4
#p ccsd(t,maxcyc=200)/6-311++G(3df,2p)

 ccsd(t) iener

0 3
    C    0.736903   -0.099521    0.130641
    C    1.866181   -0.626775    0.207339
    C   -0.590640   -0.095398   -0.246797
    O   -1.564775    0.560026   -0.219397

