%NProcShared=4
#p ccsd(t,maxcyc=200)/6-311++G(3df,2p)

 ccsd(t) iener

1 2
    C    0.967440   -0.726367    0.323525
    C   -0.086175    0.399390    0.130301
    C   -0.398484    1.647130   -0.206824
    O   -0.170024   -0.938284   -0.205197

