%NProcShared=4
#p ccsd(t,maxcyc=200)/6-311++G(3df,2p)

 ccsd(t) iener

1 2
    C    1.621995   -0.990785   -0.212918
    C    0.652652   -0.308739   -0.066790
    C   -1.356116    1.104592    0.236178
    O   -0.405984    0.436095    0.092869

