%NProcShared=4
#p ccsd(t,maxcyc=200)/6-311++G(3df,2p)

 ccsd(t) iener

1 2
    C    1.890118   -0.476637   -0.061444
    C    0.733350   -0.121345   -0.033167
    C   -0.543668    0.270540   -0.001957
    O   -1.614870    0.599635    0.023671

