%NProcShared=4
#p ccsd(t,maxcyc=200)/6-311++G(3df,2p)

 ccsd(t) iener

1 2
    C    0.180515   -0.513258    0.843105
    C    0.392411    2.021364   -1.589014
    O   -0.034848   -1.620841    1.462481
    C    0.160194    0.941448   -1.070712
    C   -0.107537   -0.276244   -0.506079
    H    0.620039    0.252809    1.472934
    H   -0.429762   -2.328303    0.922720
    H    0.594755    2.967089   -2.044400
    H   -0.547487   -1.060352   -1.116619

