%NProcShared=4
#p ccsd(t,maxcyc=200)/6-311++G(3df,2p)

 ccsd(t) iener

1 2
    O    1.698837    0.705601    0.002149
    C   -0.728407   -0.169990   -0.000868
    C    0.765248   -0.016298    0.000538
    C    0.043799   -1.230579   -0.001482
    C   -1.946577    0.631256   -0.000925
    H    0.204612   -2.302694   -0.002612
    H   -1.972146    1.270057    0.884361
    H   -2.810678   -0.036800   -0.002429
    H   -1.970685    1.272151   -0.884737

