%NProcShared=4
#p ccsd(t,maxcyc=200)/6-311++G(3df,2p)

 ccsd(t) iener

0 1
C -1.951319029 -1.833776500  0.056753199
C -0.999061717 -0.946696446  0.027916700
C  0.983142596  0.677484291 -0.058331068
C -0.065908000 -0.064114000  0.001227000
O  1.892829612  1.400922741 -0.100500124

