%NProcShared=4
#p ccsd(t,maxcyc=200)/6-311++G(3df,2p)

 ccsd(t) iener

1 2
    C    0.001418    0.100403    0.068962
    C    0.373616   -0.642599    1.308929
    C   -0.209520    0.616205    1.268363
    C    0.002503    0.029588   -1.303509
    O    0.013970   -0.050941   -2.420354

