%NProcShared=4
#p ccsd(t,maxcyc=200)/6-311++G(3df,2p)

 ccsd(t) iener

1 4
    C   -1.096842    0.000000    0.000000
    O    0.767607    0.000000    0.000000

