%NProcShared=4
#p ccsd(t,maxcyc=200)/6-311++G(3df,2p)

 ccsd(t) iener

0 1
    C   -0.774245    0.000000    0.000000
    O    0.350211    0.000000    0.000000

