%NProcShared=4
#p ccsd(t,maxcyc=200)/6-311++G(3df,2p)

 ccsd(t) iener

1 4
    C    0.802092   -0.524117    0.422936
    C    0.069601    0.538027   -0.050509
    H    1.856008   -0.383637    0.688660
    H    0.370623   -1.526298    0.549383
    O   -1.179641    0.373429   -0.365917

