%NProcShared=4
#p ccsd(t,maxcyc=200)/6-311++G(3df,2p)

 ccsd(t) iener

0 1
    C    1.543299    0.383170    0.336126
    C    0.539083   -0.154672   -0.308259
    H    0.979143   -1.016681   -0.834114
    H   -1.084103    0.801688   -0.006132
    O   -0.787769    0.030000   -0.500770

