%NProcShared=4
#p ccsd(t,maxcyc=200)/6-311++G(3df,2p)

 ccsd(t) iener

1 2
    C    1.095631    0.273613   -0.714193
    C   -0.044983    0.288562   -0.236285
    H    2.084047    0.293667   -1.133314
    H   -1.694756    1.002223    0.364761
    O   -1.174762    0.173487    0.255226

