%NProcShared=4
#p ccsd(t,maxcyc=200)/6-311++G(3df,2p)

 ccsd(t) iener

1 4
    C    0.149140    0.419311    0.001050
    C    1.496492    0.106256   -0.123309
    H    2.116467   -0.741555   -0.392132
    H   -0.146570    1.452760    0.318764
    O   -0.836289   -0.303279   -0.193741

