%NProcShared=4
#p ccsd(t,maxcyc=200)/6-311++G(3df,2p)

 ccsd(t) iener

0 3
    C    1.246162   -0.583278    0.572717
    C    0.065844    0.227823    0.541769
    H    2.123130   -0.243789    1.101422
    H    1.266031   -1.544063    0.064824
    O   -0.977907    0.004288    0.009189

