%NProcShared=4
#p ccsd(t,maxcyc=200)/6-311++G(3df,2p)

 ccsd(t) iener

1 2
    C   -1.418121   -0.216401    0.000472
    O   -0.448923   -0.782672    0.001839
    C   -2.606510    0.477800   -0.001131
    H   -3.058405    0.739468   -0.954494
    H   -3.058337    0.744019    0.951002

