%NProcShared=4
#p ccsd(t,maxcyc=200)/6-311++G(3df,2p)

 ccsd(t) iener

0 3
    C   -0.040027   -0.020168   -0.109638
    C   -0.474624    0.950462    0.637688
    C    0.970330    0.949128    0.429375
    H    0.679424   -1.445064   -1.108132
    H    1.596114    1.608434   -0.178693
    O   -0.183166   -1.083585   -0.867421

