%NProcShared=4
#p ccsd(t,maxcyc=200)/6-311++G(3df,2p)

 ccsd(t) iener

1 2
    C   -0.728640   -0.364700   -0.299193
    C    0.790150    0.954898    0.145627
    O   -0.504879    0.976162   -0.133674
    C    1.104432   -0.424475    0.239797
    C    0.214072   -1.373342   -0.014369
    H    1.387255    1.854028    0.180149
    H    0.094285   -2.444015   -0.013945

