%NProcShared=4
#p ccsd(t,maxcyc=200)/6-311++G(3df,2p)

 ccsd(t) iener

0 1
    C    1.092207   -0.622531   -0.035532
    C   -1.554516    0.037475   -0.574564
    C   -1.227335    0.566291    0.674458
    C   -0.267664   -0.098506    0.039958
    H   -1.515901    1.119539    1.553280
    H    1.194562   -1.674787    0.292098
    O    2.028046    0.025382   -0.430063

