%NProcShared=4
#p ccsd(t,maxcyc=200)/6-311++G(3df,2p)

 ccsd(t) iener

1 2
    C    0.931251   -0.254281    0.313143
    H   -0.315680    0.621833   -1.115091
    H   -0.663246    1.086507    0.461222
    O   -0.098784    0.549207   -0.150897

