%NProcShared=4
#p ccsd(t,maxcyc=200)/6-311++G(3df,2p)

 ccsd(t) iener

1 4
    C    0.263833    0.628765   -0.324925
    H    0.829574    0.315283   -1.231153
    H   -0.196863    1.640287   -0.389413
    O   -0.766182   -0.336384   -0.061532

