%NProcShared=4
#p ccsd(t,maxcyc=200)/6-311++G(3df,2p)

 ccsd(t) iener

0 1
    C    0.488827   -0.286326   -0.265819
    H    0.380634   -1.391697   -0.202194
    H   -0.767820    1.084551   -0.371881
    O   -0.753071    0.118744   -0.314014

