%NProcShared=4
#p ccsd(t,maxcyc=200)/6-311++G(3df,2p)

 ccsd(t) iener

0 1
    C    0.113370    0.220665   -0.407617
    H    0.663160   -0.484610   -1.058760
    H    0.351012    1.292654   -0.541879
    O   -0.692574   -0.154744    0.396250

