%NProcShared=4
#p ccsd(t,maxcyc=200)/6-311++G(3df,2p)

 ccsd(t) iener

1 4
    C    0.819166    0.128001    0.070790
    H    1.015109    1.005943    0.701173
    H   -0.850250   -0.954911    0.719821
    O   -0.626888   -0.243323    0.049581

