%NProcShared=4
#p ccsd(t,maxcyc=200)/6-311++G(3df,2p)

 ccsd(t) iener

1 2
    C    0.444366    0.211794   -0.449015
    H    0.801788    1.137088   -0.930465
    H   -0.601746    0.761240    1.081045
    O   -0.238472    0.017443    0.529191

