%NProcShared=4
#p ccsd(t,maxcyc=200)/6-311++G(3df,2p)

 ccsd(t) iener

0 3
    C    0.439381   -0.166329   -0.350993
    H    0.768779   -1.213671   -0.306550
    H    0.461635    0.265901   -1.360974
    O   -0.652002    0.077445    0.308966

