%NProcShared=4
#p ccsd(t,maxcyc=200)/6-311++G(3df,2p)

 ccsd(t) iener

0 1
    H    0.653499    0.803982    0.000000
    H    1.196676   -0.622393    0.000000
    O    0.379433   -0.116999    0.000000

