%NProcShared=4
#p ccsd(t,maxcyc=200)/6-311++G(3df,2p)

 ccsd(t) iener

1 2
    H   -0.696767    0.845401    0.000000
    H   -1.011373   -0.768374    0.000000
    O   -0.287351   -0.071969    0.000000

