%NProcShared=4
#p ccsd(t,maxcyc=200)/6-311++G(3df,2p)

 ccsd(t) iener

1 2
    H   -0.314728    0.868866    0.000000
    H   -1.286478   -0.457350    0.000000
    O   -0.334655   -0.135652    0.000000

