%NProcShared=4
#p ccsd(t,maxcyc=200)/6-311++G(3df,2p)

 ccsd(t) iener

1 1
    C   -1.162392    0.948515   -0.327051
    C    0.549375   -0.717494    0.375479
    H    1.133147   -0.474996    1.255066
    H   -0.871244    1.712889   -1.067388
    O   -0.225052    0.181064   -0.061053
    H    0.576144   -1.649947   -0.175063

