%NProcShared=4
#p ccsd(t,maxcyc=200)/6-311++G(3df,2p)

 ccsd(t) iener

0 2
    C    0.072057   -0.039353   -0.076941
    C    0.867662   -1.060051   -0.301505
    H    0.710766   -1.715368   -1.154772
    H    1.707354   -1.256709    0.347118
    H   -1.142085    1.263198   -0.733680
    O   -1.087817    0.306616   -0.629936

