%NProcShared=4
#p ccsd(t,maxcyc=200)/6-311++G(3df,2p)

 ccsd(t) iener

1 1
    C   -0.157876    1.900366    0.000000
    C    0.103654    0.721644    0.000000
    C    0.486678   -0.605052    0.000000
    H   -0.401163    2.943475   -0.000000
    H   -1.259167   -1.366320   -0.000000
    H    1.538954   -0.884057   -0.000000
    O   -0.309404   -1.597648   -0.000000

