%NProcShared=4
#p ccsd(t,maxcyc=200)/6-311++G(3df,2p)

 ccsd(t) iener

1 1
    C    1.242875   -0.330020    0.008663
    C    0.610880    0.217022   -1.056293
    C   -0.129016   -0.265750   -0.011414
    H    2.174387   -0.599844    0.483844
    H   -1.300895   -0.882179    1.341379
    H    0.685457    0.688813   -2.024801
    O   -1.293870   -0.454148    0.467321

