%NProcShared=4
#p ccsd(t,maxcyc=200)/6-311++G(3df,2p)

 ccsd(t) iener

1 1
    C    0.642000   -0.184644    0.084075
    C    0.250009    1.025979   -0.705570
    C   -0.518050   -1.078949    0.081423
    H    1.504109   -0.729858   -0.338650
    H    0.909654    0.036804    1.132186
    H    1.135825    1.679881   -0.688507
    O   -1.436293   -1.702542    0.035575

