%NProcShared=4
#p ccsd(t,maxcyc=200)/6-311++G(3df,2p)

 ccsd(t) iener

0 2
    C    0.819611   -1.004402   -0.000000
    C   -0.002861    1.097511    0.000000
    O    1.122666    0.357004   -0.000000
    C   -1.131258    0.286585   -0.000000
    C   -0.644315   -1.004464    0.000000
    H    0.111170    2.170624    0.000000
    H   -2.151098    0.633495   -0.000000
    H   -1.223297   -1.914063    0.000000

