%NProcShared=4
#p ccsd(t,maxcyc=200)/6-311++G(3df,2p)

 ccsd(t) iener

1 3
C -0.465260253  0.516578834  0.266741827
H  0.896657312  0.125506767 -1.228736744
H  0.766183312 -1.084889233 -0.137064744
H -0.328805066  1.232114048  1.076403351
O  0.665505780 -0.123640162 -0.307957299

