%NProcShared=4
#p ccsd(t,maxcyc=200)/6-311++G(3df,2p)

 ccsd(t) iener

1 3
    C    0.100341   -0.279063    0.680377
    H    0.322825    0.563561   -1.079256
    H    0.441922   -1.323715    0.931405
    H    0.085016    0.284780    1.656514
    O    0.810531    0.301019   -0.256891

