%NProcShared=4
#p ccsd(t,maxcyc=200)/6-311++G(3df,2p)

 ccsd(t) iener

0 2
    C   -0.443798   -0.308230   -0.740442
    H    0.972789    0.827007   -0.117554
    H   -1.026507    0.530566   -1.094382
    H   -0.885412   -1.277807   -0.579939
    O    0.666374   -0.074060    0.014429

