%NProcShared=4
#p ccsd(t,maxcyc=200)/6-311++G(3df,2p)

 ccsd(t) iener

0 2
    C   -0.128341   -0.205121   -0.425033
    H   -0.496559    0.543584    0.288297
    H   -0.453031    0.134747   -1.427656
    H   -0.598719   -1.183827   -0.264201
    O    1.230110   -0.265535   -0.487321

