%NProcShared=4
#p ccsd(t,maxcyc=200)/6-311++G(3df,2p)

 ccsd(t) iener

0 1
    C   -0.000000   -1.092662    0.317393
    C    0.000000    1.092662    0.317393
    O   -0.000000   -0.000000    1.127624
    C   -0.000000    0.715900   -0.983578
    C    0.000000   -0.715900   -0.983578
    H   -0.000000   -2.045865    0.813659
    H    0.000000    2.045865    0.813659
    H   -0.000000    1.369869   -1.838147
    H    0.000000   -1.369869   -1.838147

