%NProcShared=4
#p ccsd(t,maxcyc=200)/6-311++G(3df,2p)

 ccsd(t) iener

0 1
    C   -0.866734   -0.691819   -0.000000
    C    1.171660    0.197134    0.000000
    O    0.354342   -1.124058    0.000000
    C    0.241555    1.305394    0.000000
    C   -1.014782    0.691607   -0.000000
    H   -1.633843   -1.458028    0.000000
    H    1.793552    0.126997    0.892314
    H    1.793552    0.126997   -0.892314
    H   -1.976474    1.183059    0.000000

