%NProcShared=4
#p ccsd(t,maxcyc=200)/6-311++G(3df,2p)

 ccsd(t) iener

0 1
    O   -2.959715    0.997939    0.281014
    C    1.817908   -0.038731    0.000021
    C    0.367703   -0.007995   -0.000609
    C   -0.835844    0.043013    0.006810
    C   -2.273896    0.043540   -0.002282
    H    2.202541    0.152214    1.003478
    H    2.217141    0.733542   -0.659746
    H    2.196678   -1.005303   -0.333688
    H   -2.732616   -0.918218   -0.294999

