%NProcShared=4
#p ccsd(t,maxcyc=200)/6-311++G(3df,2p)

 ccsd(t) iener

0 1
    C    0.348654   -1.242620    0.621352
    C   -0.001770    0.625886   -0.857823
    O   -0.486237   -0.810893    1.582347
    C   -0.544260    1.676525   -1.089529
    C    0.607566   -0.608753   -0.533688
    H    0.809440   -2.185800    0.877817
    H   -0.875746    0.033473    1.312450
    H   -1.010970    2.602628   -1.316691
    H    1.300521   -1.057413   -1.231102

