%NProcShared=4
#p ccsd(t,maxcyc=200)/6-311++G(3df,2p)

 ccsd(t) iener

1 2
    C    0.620486   -0.592618   -0.322996
    H    0.756263   -0.890912   -1.402220
    H    0.899943    0.484327   -0.507990
    H   -0.973021   -1.109846    0.728120
    H    1.253445   -1.117992    0.383245
    O   -0.710924   -0.612133   -0.079214

