%NProcShared=4
#p ccsd(t,maxcyc=200)/6-311++G(3df,2p)

 ccsd(t) iener

0 1
    C    0.269803   -0.327679   -0.314140
    H   -1.654504   -0.020385   -0.125994
    H    0.450736    0.408683   -1.102900
    H    1.114140   -0.311935    0.371922
    H    0.207349   -1.323297   -0.763540
    O   -0.886999   -0.015266    0.450615

