%NProcShared=4
#p ccsd(t,maxcyc=200)/6-311++G(3df,2p)

 ccsd(t) iener

0 4
    C   -0.878014   -0.371355   -0.283850
    C   -0.029422    0.621436    0.341780
    H    0.261972    0.765521    1.380489
    O    0.473999   -0.520360   -0.361093

