%NProcShared=4
#p ccsd(t,maxcyc=200)/6-311++G(3df,2p)

 ccsd(t) iener

1 1
    C   -0.712332   -0.582054   -0.541245
    C   -0.311486    0.199908    0.618266
    H   -0.296896    0.778334    1.543347
    O    0.606977   -0.153201   -0.169015

