%NProcShared=4
#p ccsd(t,maxcyc=200)/6-311++G(3df,2p)

 ccsd(t) iener

1 1
    C   -1.153935    0.880707   -0.461469
    C   -0.159611    0.089976    0.043518
    H    1.539463   -0.453902    0.680945
    O    0.604571   -0.741491    0.494113

