%NProcShared=4
#p ccsd(t,maxcyc=200)/6-311++G(3df,2p)

 ccsd(t) iener

1 1
    C    0.222794   -1.505299   -0.238686
    C   -0.021630    1.103109    0.208690
    H   -0.795173    1.216681    1.002684
    O   -0.067641   -0.443313    0.136128

