%NProcShared=4
#p ccsd(t,maxcyc=200)/6-311++G(3df,2p)

 ccsd(t) iener

1 1
    C   -0.889869    0.018784   -0.096325
    C    0.260430   -0.996598    0.271676
    H    1.154559    0.925554   -0.599481
    O    0.470495    0.267255   -0.279673

