%NProcShared=4
#p ccsd(t,maxcyc=200)/6-311++G(3df,2p)

 ccsd(t) iener

1 3
    C   -0.924901   -0.018192    0.522507
    C    1.426870    0.134677   -0.334072
    H   -1.392014    0.548312    1.328605
    O    0.348774    0.145489    0.144674

