%NProcShared=4
#p ccsd(t,maxcyc=200)/6-311++G(3df,2p)

 ccsd(t) iener

0 2
    C   -0.353708   -0.251902    0.454478
    C   -0.530257    0.872259   -0.264868
    H   -0.692145   -1.011918    1.142155
    O    0.801226   -0.123606   -0.144153

