%NProcShared=4
#p ccsd(t,maxcyc=200)/6-311++G(3df,2p)

 ccsd(t) iener

1 1
    C    0.155602   -0.297545    0.010873
    C   -0.730405    0.751420    0.236382
    H   -1.040675    1.033882    1.247989
    O    0.837884   -1.080977   -0.430065

