%NProcShared=4
#p ccsd(t,maxcyc=200)/6-311++G(3df,2p)

 ccsd(t) iener

1 3
    C    0.286391   -0.404035    0.288782
    C    1.601581   -0.659572    0.365650
    H   -0.979319    0.661873   -0.743470
    O   -0.816402    0.013492   -0.013297

