%NProcShared=4
#p ccsd(t,maxcyc=200)/6-311++G(3df,2p)

 ccsd(t) iener

0 4
    C   -1.084744    0.792402   -0.474249
    C    0.204724    0.478863    0.096425
    H    1.325756   -0.868928    0.791993
    O    0.435581   -0.768258    0.419591

