%NProcShared=4
#p ccsd(t,maxcyc=200)/6-311++G(3df,2p)

 ccsd(t) iener

0 2
    C    0.523860    0.048069   -0.243243
    C   -1.870488   -1.090509   -0.224288
    C   -0.818341   -0.457211   -0.077375
    H    1.113556   -0.375341   -1.069714
    O    0.956462    0.893570    0.500586

