%NProcShared=4
#p ccsd(t,maxcyc=200)/6-311++G(3df,2p)

 ccsd(t) iener

1 3
    C    0.069118    0.416112   -0.157422
    C    0.088220   -0.884730   -0.013259
    C   -0.004351   -2.110179   -0.164477
    H    0.619665    1.669319    1.178373
    O    0.263711    1.557740    0.264441

