%NProcShared=4
#p ccsd(t,maxcyc=200)/6-311++G(3df,2p)

 ccsd(t) iener

0 4
    C   -0.627377    0.083653   -0.178748
    C   -1.808154   -0.416513    0.147644
    C    0.597215   -0.546115    0.326205
    H   -0.550243    0.966410   -0.824400
    O    1.719490   -0.228388    0.130572

