%NProcShared=4
#p ccsd(t,maxcyc=200)/6-311++G(3df,2p)

 ccsd(t) iener

1 3
    C    1.015995   -0.195461    0.000000
    H   -0.421662    1.051996    0.000000
    O   -0.174276    0.082257    0.000000

