%NProcShared=4
#p ccsd(t,maxcyc=200)/6-311++G(3df,2p)

 ccsd(t) iener

0 4
    C   -0.522632   -0.756999    0.000000
    H   -0.019608   -1.721829    0.000000
    O    0.272062    0.381236    0.000000

