%NProcShared=4
#p ccsd(t,maxcyc=200)/6-311++G(3df,2p)

 ccsd(t) iener

0 2
    C   -0.793073   -0.237458    0.000000
    H   -1.170842   -1.295207    0.000000
    O    0.338885    0.063061    0.000000

