%NProcShared=4
#p ccsd(t,maxcyc=200)/6-311++G(3df,2p)

 ccsd(t) iener

1 1
    C   -0.234483   -0.519400   -0.000000
    H   -0.610497   -1.562336   -0.000000
    O    0.140550    0.519060    0.000000

