%NProcShared=4
#p ccsd(t,maxcyc=200)/6-311++G(3df,2p)

 ccsd(t) iener

0 2
    H   -0.845108    0.000000    0.000000
    O    0.128927    0.000000    0.000000

