%NProcShared=4
#p b3lyp/6-311++G(3df,2p) freq symmetry=Loose

 b3lyp opt

1 4
    C    0.000000    0.000000   -1.305986
    H    0.000000    0.000000   -2.380358
    C    0.000000    0.000000    0.000095
    C    0.000000    0.000000    1.305889
    H    0.000000    0.000000    2.380377

