%NProcShared=4
#p b3lyp/6-311++G(3df,2p) freq symmetry=Loose

 b3lyp opt

2 3
    C    0.000000    0.000000    0.233301
    H    0.000000    1.087259   -0.699902
    H    0.000000   -1.087259   -0.699902

