%NProcShared=4
#p b3lyp/6-311++G(3df,2p) freq symmetry=Loose

 b3lyp opt

2 4
    C    0.000000    0.000002    0.000000
    H   -1.239631    0.633855    0.000000
    H    1.168756    0.756605    0.000000
    H    0.070876   -1.390472    0.000000

