%NProcShared=4
#p b3lyp/6-311++G(3df,2p) freq symmetry=Loose

 b3lyp opt

0 2
    C   -0.013815   -0.500523    0.000000
    C   -0.013815    0.944393    0.000000
    H   -0.988628   -1.006403    0.000000
    H    0.577204   -0.828408    0.870929
    H    0.577204   -0.828408   -0.870929

