%NProcShared=4
#p b3lyp/6-311++G(3df,2p) freq symmetry=Loose

 b3lyp opt

2 2
    C    0.000000    0.000000    0.841906
    H    0.000000    0.000000    1.950858
    C    0.000000    0.647634   -0.465526
    H    0.000000    1.743727   -0.707989
    C    0.000000   -0.647634   -0.465526
    H    0.000000   -1.743727   -0.707989

