%NProcShared=4
#p b3lyp/6-311++G(3df,2p) freq symmetry=Loose

 b3lyp opt

0 4
    C    0.359572   -0.002058    0.125930
    C   -1.795677    0.000896    0.129571
    C   -0.747098    0.876379   -0.123321
    C   -0.749360   -0.875388   -0.123899
    C    1.826699   -0.000942    0.002996
    H    2.180068   -0.959196   -0.375852
    H    2.157779    0.794259   -0.666239
    H    2.297343    0.171611    0.974430

