%NProcShared=4
#p b3lyp/6-311++G(3df,2p) freq symmetry=Loose

 b3lyp opt

1 1
    C   -0.086393    0.235899    0.000000
    C   -1.135916    1.147246    0.000000
    C    0.312901    1.483439    0.000000
    H    1.041660    2.281255    0.000000
    C    0.312901   -1.373053    0.612002
    H    0.329990   -1.502067    1.680401
    C    0.312901   -1.373053   -0.612002
    H    0.329990   -1.502067   -1.680401

