%NProcShared=4
#p b3lyp/6-311++G(3df,2p) freq symmetry=Loose

 b3lyp opt

0 1
    C    0.000000    0.745446   -0.645240
    H   -0.902315    1.245007   -0.979739
    H    0.902315    1.245007   -0.979739
    C   -0.000000   -0.745446   -0.645240
    H   -0.902315   -1.245007   -0.979739
    H    0.902315   -1.245007   -0.979739
    C    0.000000    0.619537    0.971914
    C   -0.000000   -0.619537    0.971914

