%NProcShared=4
#p b3lyp/6-311++G(3df,2p) freq symmetry=Loose

 b3lyp opt

1 2
    C    0.000000    0.794236   -0.550484
    H   -0.881108    1.287490   -0.999289
    H    0.881108    1.287490   -0.999289
    C    0.000000   -0.794236   -0.550484
    H   -0.881108   -1.287490   -0.999289
    H    0.881108   -1.287490   -0.999289
    C    0.000000    0.907682    0.883581
    C    0.000000   -0.907682    0.883581

