%NProcShared=4
#p b3lyp/6-311++G(3df,2p) freq symmetry=Loose

 b3lyp opt

1 2
    C    0.662166    0.781216    0.000749
    C   -0.497898   -0.008831    0.006942
    C    0.662183   -0.783560    0.001401
    C   -1.952509    0.000008    0.000284
    H   -2.335788   -0.996533    0.209299
    H   -2.325239    0.710294    0.741418
    H   -2.317822    0.325633   -0.979883
    C    1.808625    0.004522   -0.002819
    H    2.883030    0.003965   -0.004266

