%NProcShared=4
#p b3lyp/6-311++G(3df,2p) freq symmetry=Loose

 b3lyp opt

1 1
    H    0.000000    0.000000    1.064944
    C    0.000000    0.634904   -0.088745
    C    0.000000   -0.634904   -0.088745

