%NProcShared=4
#p b3lyp/6-311++G(3df,2p) freq symmetry=Loose

 b3lyp opt

2 2
    H    0.000000    0.000000    1.196138
    C    0.000000    0.689502   -0.099678
    C    0.000000   -0.689502   -0.099678

