%NProcShared=4
#p b3lyp/6-311++G(3df,2p) freq symmetry=Loose

 b3lyp opt

0 4
    H    0.000000    0.000000    1.002287
    C    0.000000    0.744354   -0.083524
    C    0.000000   -0.744354   -0.083524

