%NProcShared=4
#p b3lyp/6-311++G(3df,2p) freq symmetry=Loose

 b3lyp opt

1 1
    H    0.000000    0.000000    1.648855
    C    0.000000    0.000000    0.555195
    C    0.000000    0.000000   -0.830004

