%NProcShared=4
#p b3lyp/6-311++G(3df,2p) freq symmetry=Loose

 b3lyp opt

0 2
    C    0.000000    0.000000   -1.423061
    C    0.000000    0.000000   -0.092332
    C    0.000000    0.000000    1.146893
    H    0.000000    0.000000    2.210995

