%NProcShared=4
#p b3lyp/6-311++G(3df,2p) freq symmetry=Loose

 b3lyp opt

0 2
    N   -0.010222    0.000000   -0.691308
    C   -0.005884   -0.000000   -1.882067
    C   -0.019132    0.000000    1.876799
    C   -0.014761   -0.000000    0.590220

