%NProcShared=4
#p b3lyp/6-311++G(3df,2p) freq symmetry=Loose

 b3lyp opt

2 4
    N   -0.010488    0.000000   -0.637580
    C   -0.005681   -0.000000   -1.931769
    C   -0.019200   -0.000000    1.890660
    C   -0.014630    0.000000    0.572333

