%NProcShared=4
#p b3lyp/6-311++G(3df,2p) freq symmetry=Loose

 b3lyp opt

1 3
    N   -0.010012    0.000000   -0.678521
    C   -0.005872   -0.000000   -1.909142
    C   -0.019206   -0.000000    1.921828
    C   -0.014909    0.000000    0.559480

