%NProcShared=4
#p b3lyp/6-311++G(3df,2p) freq symmetry=Loose

 b3lyp opt

0 2
    C   -0.296722    0.621067   -0.594007
    C    0.331316   -0.827825    0.177845
    N   -0.937443   -0.308404    0.183674
    C    0.902854    0.515148    0.232494

