%NProcShared=4
#p b3lyp/6-311++G(3df,2p) freq symmetry=Loose

 b3lyp opt

2 2
    N    0.333219   -0.084236   -0.800991
    C    1.251739    0.973826   -1.130448
    C    1.700801   -0.506606   -0.952216
    C   -0.937958   -0.437949   -0.535136

