%NProcShared=4
#p b3lyp/6-311++G(3df,2p) freq symmetry=Loose

 b3lyp opt

1 3
    N    0.251299   -0.107115   -0.784371
    C    1.306676    0.905246   -1.127582
    C    1.708621   -0.420473   -0.967945
    C   -0.918793   -0.432622   -0.538893

