%NProcShared=4
#p b3lyp/6-311++G(3df,2p) freq symmetry=Loose

 b3lyp opt

0 2
    N   -0.718113   -0.381880    0.220633
    C   -0.269702   -0.194168   -1.113497
    C    0.424515    0.685612   -0.217296
    C    0.488783   -0.165680    0.936190

