%NProcShared=4
#p b3lyp/6-311++G(3df,2p) freq symmetry=Loose

 b3lyp opt

1 1
    N   -0.010291    0.000001   -0.676132
    C   -0.005761   -0.000001   -1.913295
    C   -0.019293   -0.000000    1.925307
    C   -0.014654   -0.000000    0.557764

