%NProcShared=4
#p b3lyp/6-311++G(3df,2p) freq symmetry=Loose

 b3lyp opt

1 1
    N    0.297204   -0.094289   -0.793962
    C    1.258179    0.940511   -1.125696
    C    1.687647   -0.475155   -0.955269
    C   -0.895228   -0.426032   -0.543863

