%NProcShared=4
#p b3lyp/6-311++G(3df,2p) freq symmetry=Loose

 b3lyp opt

1 3
    N    0.934520    0.291616   -0.251211
    C    0.330338   -0.969653    0.312970
    C   -0.297517    0.171650    0.921875
    C   -0.543095   -0.433944   -0.696042
    C   -0.424299    0.940315   -0.287577

