%NProcShared=4
#p b3lyp/6-311++G(3df,2p) freq symmetry=Loose

 b3lyp opt

0 4
    N    0.921771    0.284470   -0.249542
    C    0.128216   -0.975226    0.346623
    C   -0.089470    0.280203    1.002136
    C   -0.371587   -0.422269   -0.877814
    C   -0.588983    0.832807   -0.221386

