%NProcShared=4
#p b3lyp/6-311++G(3df,2p) freq symmetry=Loose

 b3lyp opt

1 3
    N    1.389805   -0.173423   -0.215657
    C    0.127439   -0.584220    0.179049
    C    0.702892    0.838653   -0.552922
    C   -0.875803    0.582978    0.022847
    C   -1.189423   -0.651570    0.435910

