%NProcShared=4
#p b3lyp/6-311++G(3df,2p) freq symmetry=Loose

 b3lyp opt

1 1
    N    0.700082   -0.692905    0.123481
    C   -0.222807    0.169899   -0.022966
    C   -0.744649    1.464007    0.087345
    C   -1.506089    0.563465   -0.419748
    C    1.577293   -1.512753    0.262705

