%NProcShared=4
#p b3lyp/6-311++G(3df,2p) freq symmetry=Loose

 b3lyp opt

1 1
    C   -1.050125    1.285599    0.248877
    C   -1.521454    0.176720    0.694279
    C   -0.254589    0.151693    0.120134
    N    1.860487   -1.036652   -0.600665
    C    0.890242   -0.491589   -0.270005

