%NProcShared=4
#p b3lyp/6-311++G(3df,2p) freq symmetry=Loose

 b3lyp opt

1 1
    N    0.042871   -0.885111   -0.057732
    C    0.908005    0.106508   -0.800816
    C   -0.076125    0.867459    0.017243
    C   -1.158812   -0.049344   -0.434118
    C    0.197642   -0.039403    1.174435

