%NProcShared=4
#p b3lyp/6-311++G(3df,2p) freq symmetry=Loose

 b3lyp opt

1 3
    C   -1.359166    0.361142   -0.392885
    C    1.564067    0.185415    2.028086
    N   -1.292977   -0.672339   -1.285661
    C    0.052904    0.213030   -0.045167
    C    0.021191   -0.314623   -1.407900
    C    0.842839    0.188459    1.045428

