%NProcShared=4
#p b3lyp/6-311++G(3df,2p) freq symmetry=Loose

 b3lyp opt

0 2
    N    0.000000    0.000000    1.925561
    C   -0.000000    0.000000    0.642739
    C   -0.000000    0.000000   -0.587997
    C    0.000000   -0.000000   -1.904501
    C    0.000000   -0.000000   -3.188521
    C    0.000000   -0.000000    3.112719

