%NProcShared=4
#p b3lyp/6-311++G(3df,2p) freq symmetry=Loose

 b3lyp opt

0 4
    N    0.000000    0.000000    1.912070
    C    0.000000   -0.000000    0.681928
    C    0.000000   -0.000000   -0.623719
    C    0.000000   -0.000000   -1.882871
    C   -0.000000    0.000000   -3.234710
    C   -0.000000    0.000000    3.147302

