%NProcShared=4
#p b3lyp/6-311++G(3df,2p) freq symmetry=Loose

 b3lyp opt

0 2
    N   -0.307149    0.341220   -0.098168
    C   -1.557638   -0.068519   -0.148517
    C    0.002234   -2.257018    0.353956
    C   -0.627777   -1.142601    0.113435
    C    1.666777    1.951662   -0.175697
    C    0.683892    1.133682   -0.134529

