%NProcShared=4
#p b3lyp/6-311++G(3df,2p) freq symmetry=Loose

 b3lyp opt

0 2
    N    1.593225   -1.552007   -0.086077
    C    1.333983   -0.222254   -0.012955
    C    0.255943   -1.327789   -0.041250
    C   -1.014307    0.985906    0.104178
    C   -0.069289    0.066212    0.035490
    C   -1.927814    1.874626    0.170507

