%NProcShared=4
#p b3lyp/6-311++G(3df,2p) freq symmetry=Loose

 b3lyp opt

1 1
    N   -0.276027    0.009982   -0.312327
    C   -1.974406    0.064602   -2.227084
    C    1.678458    0.500549    1.321017
    C    1.092779   -0.593404    1.807035
    C   -1.076800    0.035833   -1.215220
    C    0.556020   -0.017583    0.626560

