%NProcShared=4
#p b3lyp/6-311++G(3df,2p) freq symmetry=Loose

 b3lyp opt

1 1
    N   -0.275548    0.010609   -0.312453
    C   -1.974893    0.064250   -2.227286
    C    1.678374    0.500196    1.321287
    C    1.092660   -0.593615    1.807153
    C   -1.076730    0.035744   -1.215068
    C    0.556168   -0.017212    0.626341

