%NProcShared=4
#p b3lyp/6-311++G(3df,2p) freq symmetry=Loose

 b3lyp opt

0 2
    N    1.593492   -1.551650   -0.085952
    C    1.333773   -0.221981   -0.013554
    C    0.256480   -1.327586   -0.041507
    C   -1.014556    0.985735    0.104542
    C   -0.069091    0.066245    0.035642
    C   -1.928278    1.874017    0.170712

