%NProcShared=4
#p b3lyp/6-311++G(3df,2p) freq symmetry=Loose

 b3lyp opt

1 3
    N   -0.275437    0.009386   -0.311096
    C   -1.977260    0.065557   -2.231166
    C    1.672054    0.485394    1.329637
    C    1.103152   -0.577704    1.802227
    C   -1.079293    0.035297   -1.217407
    C    0.556808   -0.017950    0.627786

