%NProcShared=4
#p b3lyp/6-311++G(3df,2p) freq symmetry=Loose

 b3lyp opt

0 2
    N    1.593709   -1.551558   -0.085913
    C    1.333716   -0.222088   -0.013216
    C    0.256433   -1.327377   -0.041522
    C   -1.014581    0.985633    0.104597
    C   -0.069332    0.066130    0.035536
    C   -1.928124    1.874041    0.170402

