%NProcShared=2
#p b3lyp/6-311++G(3df,2p) freq IOp(2/17=3) IOp(2/18=3)

 b3lyp opt

-1 2
    C    0.055950   -0.598015    0.026375
    C    0.216382    0.676825   -0.081893
    C    0.377444    1.958276   -0.190670
    O   -0.094164   -1.789977    0.127714

