%NProcShared=2
#p b3lyp/6-311++G(3df,2p) freq IOp(2/17=3) IOp(2/18=3)

 b3lyp opt

-1 2
    C    1.669502   -1.024203   -0.220136
    C    0.658092   -0.312639   -0.067583
    C   -1.415953    1.146632    0.245119
    O   -0.399094    0.431373    0.091940

