%NProcShared=2
#p b3lyp/6-311++G(3df,2p) freq IOp(2/17=3) IOp(2/18=3)

 b3lyp opt

-1 2
    C   -0.892680    0.321163    0.127326
    C   -0.776883    1.640668   -0.488391
    C    0.286324   -0.478840    0.193979
    C    0.419302    0.806193   -0.410908
    O    0.816749   -1.535981    0.534266

