%NProcShared=2
#p b3lyp/6-311++G(3df,2p) freq IOp(2/17=3) IOp(2/18=3)

 b3lyp opt

-1 2
    C    0.150254    0.415389   -0.000061
    C    1.480240    0.142452   -0.111404
    H    2.067299   -0.724975   -0.386510
    H   -0.077857    1.462436    0.319815
    O   -0.840696   -0.361810   -0.211208

