%NProcShared=2
#p b3lyp/6-311++G(3df,2p) freq IOp(2/17=3) IOp(2/18=3)

 b3lyp opt

-1 4
    C    0.148397    0.237012   -0.442647
    H    0.665808   -0.498658   -1.063000
    H    0.348709    1.306847   -0.537916
    O   -0.727945   -0.171236    0.431557

