%NProcShared=2
#p b3lyp/6-311++G(3df,2p) freq IOp(2/17=3) IOp(2/18=3)

 b3lyp opt

-1 4
    H   -0.750448    1.292706    0.000000
    H   -1.229461   -1.163075    0.000000
    O   -0.015582   -0.124574    0.000000

