%NProcShared=4
#p b3lyp/6-311++G(3df,2p) freq IOp(2/17=3) IOp(2/18=3)

 b3lyp opt

-1 3
    C   -0.155173    1.920131   -0.000000
    C    0.099249    0.722125   -0.000000
    C    0.499732   -0.586230    0.000000
    H   -0.393877    2.954982    0.000000
    H   -1.260388   -1.365774    0.000000
    H    1.542739   -0.866784    0.000000
    O   -0.330605   -1.666042    0.000000

