%NProcShared=4
#p b3lyp/6-311++G(3df,2p) freq IOp(2/17=3) IOp(2/18=3)

 b3lyp opt

-1 4
    C    0.475871    0.548753   -0.167750
    C   -0.803044    0.506558    0.571224
    H   -1.446868    1.376789    0.369405
    H   -1.373456   -0.379633    0.277493
    H   -0.668703    0.447219    1.662503
    H    0.404418   -1.037934   -1.266124
    O    1.000254   -0.287294   -1.085981

