%NProcShared=4
#p b3lyp/6-311++G(3df,2p) freq IOp(2/17=3) IOp(2/18=3)

 b3lyp opt

-1 2
    C   -0.449574   -0.025648   -0.462183
    C    0.762787    0.673575   -0.038577
    C   -1.455364   -0.543308   -0.870968
    H    1.864120   -0.738991    0.745438
    H    1.440526    0.766877   -0.898051
    H    0.504885    1.685413    0.282953
    H   -2.333307   -1.016135   -1.237289
    O    1.438765    0.072625    1.062590

