%NProcShared=4
#p b3lyp/6-311++G(3df,2p) freq IOp(2/17=3) IOp(2/18=3)

 b3lyp opt

-1 2
    O    2.853955    0.811068   -0.000004
    C    0.757489   -0.343886    0.000001
    C    1.587266    0.806807   -0.000002
    C   -0.601923   -0.394176    0.000008
    C   -1.901547   -0.442242    0.000001
    H    1.283928   -1.297322   -0.000001
    H    1.044216    1.774912    0.000002
    H   -2.511746   -0.457581    0.918866
    H   -2.511737   -0.457580   -0.918870

