%NProcShared=2
#p b3lyp/6-311++G(3df,2p) freq IOp(2/17=3) IOp(2/18=3)

 b3lyp opt

-1 4
    O    0.060219   -0.361189    0.000425
    C    1.037468    0.611355   -0.000010
    C    2.435785    0.043774    0.000053
    C   -1.194319   -0.025323    0.000419
    C   -2.372506    0.202036    0.000436
    H    0.731853    1.641014   -0.000344
    H    3.288477    0.706836   -0.000270
    H    2.577240   -1.024646    0.000411
    H   -3.415015    0.407444    0.000403

