%NProcShared=4
#p b3lyp/6-311++G(3df,2p) freq IOp(2/17=3) IOp(2/18=3)

 b3lyp opt

-1 2
    O   -0.000000    0.000000    2.360092
    C    0.000000   -0.760879   -1.422669
    C    0.000000    0.760879   -1.422669
    C    0.000000   -0.000000   -0.136926
    C    0.000000   -0.000000    1.151914
    H    0.908750   -1.280315   -1.727432
    H   -0.908750   -1.280315   -1.727432
    H   -0.908750    1.280315   -1.727431
    H    0.908750    1.280315   -1.727431

