%NProcShared=4
#p b3lyp/6-311++G(3df,2p) freq IOp(2/17=3) IOp(2/18=3)

 b3lyp opt

-1 4
    C    0.000000   -1.110590    0.358583
    C   -0.000000    1.110590    0.358583
    O   -0.000000    0.000000    1.220405
    C    0.000000    0.671197   -1.031016
    C   -0.000000   -0.671197   -1.031016
    H    0.000000   -2.083258    0.817783
    H   -0.000000    2.083258    0.817783
    H    0.000000    1.334669   -1.882413
    H   -0.000000   -1.334669   -1.882413

