%NProcShared=2
#p b3lyp/6-311++G(3df,2p) freq IOp(2/17=3) IOp(2/18=3)

 b3lyp opt

-1 3
    C   -1.068844   -0.288169    0.045172
    C   -0.057698   -1.168697    0.363516
    H    1.816754    1.554446   -0.904954
    O    0.305404    0.117414   -0.207537

