%NProcShared=2
#p b3lyp/6-311++G(3df,2p) freq IOp(2/17=3) IOp(2/18=3)

 b3lyp opt

-1 1
    C   -0.833258   -0.065185    0.082255
    C    0.141196   -0.911189    0.320382
    H    1.056209    0.919789   -0.270033
    O    0.631468    0.271580   -0.836407

