%NProcShared=2
#p b3lyp/6-311++G(3df,2p) freq IOp(2/17=3) IOp(2/18=3)

 b3lyp opt

-1 3
    C   -1.748947    0.450086    0.229979
    C    0.597455    0.125165   -0.117244
    C   -0.656595   -0.154860   -0.482046
    H   -0.792889   -0.848793   -1.325091
    O    1.660677    0.457551    0.305397

