%NProcShared=2
#p b3lyp/6-311++G(3df,2p) freq IOp(2/17=3) IOp(2/18=3)

 b3lyp opt

-1 1
    C   -0.794098   -2.437017   -0.636641
    C    0.462507    1.248992   -0.134189
    C   -0.023694   -0.007455   -0.256092
    C   -0.408513   -1.229039   -0.449631
    H    1.331816    1.358532   -0.833113
    O    0.111192    2.219776    0.583790

