%NProcShared=4
#p ccsd(t,maxcyc=200)/6-311++G(3df,2p)

 ccsd(t) iener

-1 2
    C    1.250513    0.621877    0.000000
    C    0.143954   -0.025401   -0.000000
    O   -0.896725   -0.633710   -0.000000

