%NProcShared=4
#p ccsd(t,maxcyc=200)/6-311++G(3df,2p)

 ccsd(t) iener

-1 2
    C    0.313360    0.839104    0.000000
    C    0.848642   -0.428762    0.000000
    O   -0.598982   -0.292995    0.000000

