%NProcShared=4
#p ccsd(t,maxcyc=200)/6-311++G(3df,2p)

 ccsd(t) iener

-1 4
    C   -0.300122   -0.007338   -0.890600
    C    0.280337   -0.179575    1.455276
    O    0.424530    0.240433    0.199111

