%NProcShared=4
#p ccsd(t,maxcyc=200)/6-311++G(3df,2p)

 ccsd(t) iener

-1 2
    C    0.706723   -0.214839    0.068206
    C    1.907726   -0.548989    0.255506
    C   -0.606203   -0.117566   -0.261581
    O   -1.560578    0.619726   -0.190345

