%NProcShared=4
#p ccsd(t,maxcyc=200)/6-311++G(3df,2p)

 ccsd(t) iener

-1 4
    C    0.798030    0.067655   -0.010533
    C    2.093142    0.248842    0.007329
    C   -0.461301   -0.096170    0.046082
    O   -1.677001   -0.261994    0.054880

