%NProcShared=4
#p ccsd(t,maxcyc=200)/6-311++G(3df,2p)

 ccsd(t) iener

-1 2
    C    0.415119   -0.564938    0.157994
    C   -0.031860    0.706961    0.000719
    C   -0.227140    1.952335    0.000203
    O    0.156637   -1.712490   -0.117111

