%NProcShared=4
#p ccsd(t,maxcyc=200)/6-311++G(3df,2p)

 ccsd(t) iener

-1 2
    C    1.060319   -0.776873   -0.094440
    C    1.205621    0.563237    0.019660
    C   -0.123886    0.023789    0.029173
    O   -1.328847    0.148888    0.094303

