%NProcShared=4
#p ccsd(t,maxcyc=200)/6-311++G(3df,2p)

 ccsd(t) iener

-1 2
C  1.899863342 -0.506027160 -0.144324437
C  0.706609714 -0.116978101 -0.045235990
C -0.519615000  0.360645000  0.289829000
O -1.621814292  0.534937946 -0.173293930

