%NProcShared=4
#p ccsd(t,maxcyc=200)/6-311++G(3df,2p)

 ccsd(t) iener

-1 4
    C    1.052456   -0.630283    0.461093
    C    0.092650    0.314925    0.033730
    C   -0.459511    1.592878   -0.162281
    O   -0.372838   -0.895650   -0.290738

