%NProcShared=4
#p ccsd(t,maxcyc=200)/6-311++G(3df,2p)

 ccsd(t) iener

-1 4
    C    0.699092   -0.225462    0.061080
    C    1.930360   -0.635645    0.221539
    C   -0.510818    0.116929   -0.124923
    O   -1.670966    0.482510   -0.285910

