%NProcShared=4
#p ccsd(t,maxcyc=200)/6-311++G(3df,2p)

 ccsd(t) iener

-1 4
    C   -0.011878    0.126403    0.018586
    C    0.374681   -0.653302    1.143271
    C   -0.168345    0.534276    1.403920
    C   -0.161045    0.380897   -1.345721
    O    0.148575   -0.335617   -2.297664

