%NProcShared=4
#p ccsd(t,maxcyc=200)/6-311++G(3df,2p)

 ccsd(t) iener

-1 4
    C    0.496539   -0.184926   -0.894864
    C    0.666871    0.142634    0.772237
    C    1.560083    0.465271   -0.256857
    C   -0.613231    0.054550    0.045847
    O   -1.804270   -0.198550    0.217336

