%NProcShared=4
#p ccsd(t,maxcyc=200)/6-311++G(3df,2p)

 ccsd(t) iener

-1 2
    C   -0.121642   -0.017526    0.014761
    C   -1.096635    0.876607   -0.123702
    C    0.799390   -0.861573    0.145720
    C   -2.027317    1.730267   -0.255735
    O    1.681836   -1.670516    0.271344

