%NProcShared=4
#p ccsd(t,maxcyc=200)/6-311++G(3df,2p)

 ccsd(t) iener

-1 2
    C   -0.756731    0.000000    0.000000
    O    0.426108    0.000000    0.000000

