%NProcShared=4
#p ccsd(t,maxcyc=200)/6-311++G(3df,2p)

 ccsd(t) iener

-1 2
    H    0.386373    0.000000   -0.000000
    H   -0.386373    0.000000   -0.000000

