%NProcShared=4
#p ccsd(t,maxcyc=200)/6-311++G(3df,2p)

 ccsd(t) iener

-1 4
    C    0.814139   -0.557504    0.434758
    C   -0.017240    0.488394   -0.062919
    H    1.855752   -0.369902    0.685128
    H    0.438111   -1.568407    0.579101
    O   -1.172079    0.484822   -0.391515

