%NProcShared=4
#p ccsd(t,maxcyc=200)/6-311++G(3df,2p)

 ccsd(t) iener

-1 2
    C    0.815774   -0.553416    0.433948
    C   -0.013214    0.414237   -0.043277
    H    1.846292   -0.341313    0.675432
    H    0.449735   -1.578078    0.584898
    O   -1.179905    0.535974   -0.406448

