%NProcShared=4
#p ccsd(t,maxcyc=200)/6-311++G(3df,2p)

 ccsd(t) iener

-1 2
    C   -1.417840   -0.218402   -0.317797
    O   -0.505241   -0.749159    0.309178
    C   -2.573151    0.457181   -0.072933
    H   -3.195223    0.818020   -0.877816
    H   -2.898840    0.654573    0.957056

