%NProcShared=4
#p ccsd(t,maxcyc=200)/6-311++G(3df,2p)

 ccsd(t) iener

-1 4
    C    1.418866    0.491693   -0.775111
    C    0.506662   -0.086389    0.128769
    H    0.803626   -0.435552    1.121652
    H   -1.250919   -0.688042    0.642911
    O   -0.766281   -0.256026   -0.136466

