%NProcShared=4
#p ccsd(t,maxcyc=200)/6-311++G(3df,2p)

 ccsd(t) iener

-1 2
    C    1.432716    0.526428    0.414213
    C    0.622273   -0.208638   -0.327408
    H    0.891002   -1.092786   -0.911934
    H   -0.962556    0.802404    0.024512
    O   -0.793782    0.016097   -0.512532

