%NProcShared=4
#p ccsd(t,maxcyc=200)/6-311++G(3df,2p)

 ccsd(t) iener

-1 2
    C    1.362542   -0.426219    0.328776
    C    0.261613    0.151410    0.064863
    H    2.388421   -0.111328    0.373010
    H   -1.136507   -1.150113    0.210895
    O   -1.047565   -0.185663   -0.006656

