%NProcShared=4
#p ccsd(t,maxcyc=200)/6-311++G(3df,2p)

 ccsd(t) iener

-1 4
    C    1.447575    0.115043    0.305110
    C    0.197136    0.317857   -0.152307
    H    1.767399   -0.686826    0.965627
    H   -0.988125   -1.048224    0.543266
    O   -0.975377   -0.232510   -0.044564

