%NProcShared=4
#p ccsd(t,maxcyc=200)/6-311++G(3df,2p)

 ccsd(t) iener

-1 4
    C   -0.053464   -0.030912   -0.086262
    C   -0.492113    0.988918    0.607881
    C    0.951111    0.975176    0.460731
    H    0.697462   -1.417222   -1.206042
    H    1.612773    1.556269   -0.188413
    O   -0.167718   -1.113022   -0.784717

