%NProcShared=4
#p ccsd(t,maxcyc=200)/6-311++G(3df,2p)

 ccsd(t) iener

-1 2
    C    1.126529    0.115416    0.075777
    H   -0.794297   -0.924060   -0.399910
    H   -0.990092    0.637125   -0.418247
    O   -0.347775   -0.078321   -0.671420

