%NProcShared=4
#p ccsd(t,maxcyc=200)/6-311++G(3df,2p)

 ccsd(t) iener

-1 2
    C    0.821182   -0.015753    0.336360
    H    0.977186    1.089616    0.402042
    H   -0.802170   -1.038967    0.374607
    O   -0.639061   -0.099186    0.428356

