%NProcShared=4
#p ccsd(t,maxcyc=200)/6-311++G(3df,2p)

 ccsd(t) iener

-1 4
    C    0.444253   -0.148858   -0.327884
    H    0.767031   -1.209950   -0.327012
    H    0.464871    0.245553   -1.364272
    O   -0.658362    0.076602    0.309617

