%NProcShared=4
#p ccsd(t,maxcyc=200)/6-311++G(3df,2p)

 ccsd(t) iener

-1 2
    C    0.068305    0.570720   -0.471975
    H    0.887506    0.335189   -1.181815
    H   -0.134000    1.653838   -0.344116
    O   -0.691448   -0.311795   -0.009117

