%NProcShared=4
#p ccsd(t,maxcyc=200)/6-311++G(3df,2p)

 ccsd(t) iener

-1 1
    C    0.136880   -0.038392   -0.404755
    C    1.104069   -1.158771   -0.208745
    H   -0.739189   -0.114797   -1.066289
    H    0.490554    0.997610   -0.325123
    H    0.653224   -2.044758   -0.712589
    O    0.007976   -0.731594    0.811179

