%NProcShared=4
#p ccsd(t,maxcyc=200)/6-311++G(3df,2p)

 ccsd(t) iener

-1 3
    C    1.132380   -0.458227    0.309645
    C    0.112967    0.591570    0.051020
    H    0.065087    0.900279   -1.011859
    H    0.274925    1.513130    0.644050
    H   -1.073040   -0.776013    0.705134
    O   -1.248779    0.124997    0.396653

