%NProcShared=4
#p ccsd(t,maxcyc=200)/6-311++G(3df,2p)

 ccsd(t) iener

-1 1
    C   -0.608952    1.241454   -0.095857
    C    0.280767   -0.928908    0.448932
    H    0.814306   -0.417900    1.257159
    H   -1.124497    1.622427   -1.021352
    O   -0.299472    0.026732   -0.417359
    H    0.937828   -1.543774   -0.171534

