%NProcShared=4
#p ccsd(t,maxcyc=200)/6-311++G(3df,2p)

 ccsd(t) iener

-1 3
    C    0.076591   -0.078750    0.099417
    C    0.895845   -1.108327    0.003858
    H    1.571756   -1.358352    0.814214
    H    0.898737   -1.752586   -0.873601
    H   -1.475070    1.019322   -0.237054
    O   -0.752750    0.520152   -0.714210

