%NProcShared=4
#p ccsd(t,maxcyc=200)/6-311++G(3df,2p)

 ccsd(t) iener

-1 1
    C   -1.478099    0.613596   -0.087907
    C    1.054431   -0.176469   -0.007975
    O    1.987706   -0.179023    0.795856
    C   -0.337526   -0.052490    0.658655
    C   -1.554240   -0.667128   -0.007648
    H   -1.865535    1.540688   -0.470367
    H   -0.315591    0.015885    1.762526
    H   -2.053708   -1.581129   -0.274176

