%NProcShared=4
#p ccsd(t,maxcyc=200)/6-311++G(3df,2p)

 ccsd(t) iener

-1 3
    C   -0.435113   -0.318033   -0.748243
    H    0.943049    0.848245   -0.095507
    H   -1.007046    0.533430   -1.095201
    H   -0.903954   -1.273042   -0.560833
    O    0.686510   -0.093123   -0.018104

