%NProcShared=4
#p ccsd(t,maxcyc=200)/6-311++G(3df,2p)

 ccsd(t) iener

-1 1
C -0.011765110 -0.314269542  0.703365751
H  0.303913978  0.533317249 -1.021381121
H  0.457693460 -1.292148051  0.924252603
H  0.109227681  0.276800014  1.631496266
O  0.901474388  0.343289268 -0.305399610

