%NProcShared=4
#p ccsd(t,maxcyc=200)/6-311++G(3df,2p)

 ccsd(t) iener

-1 4
    C   -0.058673    1.313488   -1.709086
    C    0.440123   -0.367047    0.044717
    C   -0.656121    0.321182   -0.732003
    H    1.513233    1.022017   -0.541229
    H   -1.287452   -0.447231   -1.219252
    H    0.258154   -1.052193    0.870394
    H   -1.351871    0.837103   -0.018170
    O    1.601302    0.345553    0.185029

