%NProcShared=4
#p ccsd(t,maxcyc=200)/6-311++G(3df,2p)

 ccsd(t) iener

-1 2
    C   -1.158967   -1.183136    0.713066
    C    0.783213    0.544135    0.591069
    C   -0.699518   -0.038267    0.294970
    H    0.541968    1.416702    1.258107
    H    1.263503   -0.218242    1.253548
    H   -0.637557   -1.947207    1.284149
    H   -1.252943    0.655706   -0.333578
    O    1.430459    0.848532   -0.510370

