%NProcShared=4
#p ccsd(t,maxcyc=200)/6-311++G(3df,2p)

 ccsd(t) iener

-1 4
    C   -1.183960    0.096218   -0.140410
    C    2.169153   -0.437680   -0.023839
    O   -1.418667   -0.953321    0.430644
    C    1.240033    0.412191   -0.433345
    C   -0.003297    1.016102    0.047146
    H    0.109341    1.252686    1.146285
    H    2.143603   -0.861477    0.981261
    H    2.978763   -0.769887   -0.664818
    H   -0.197520    1.967845   -0.462587

