%NProcShared=4
#p ccsd(t,maxcyc=200)/6-311++G(3df,2p)

 ccsd(t) iener

-1 2
    O    0.060423   -0.477556    0.000498
    C    1.085429    0.467029   -0.000134
    C    2.348854    0.086690   -0.000030
    C   -1.172913   -0.056242    0.000353
    C   -2.329368    0.259771    0.000261
    H    0.741855    1.491736   -0.000688
    H    3.127324    0.839623   -0.000529
    H    2.640214   -0.953168    0.000537
    H   -3.352615    0.543418    0.000175

