%NProcShared=4
#p ccsd(t,maxcyc=200)/6-311++G(3df,2p)

 ccsd(t) iener

-1 1
    C    0.389625   -0.343289    0.200307
    C    1.562349   -0.686866    0.404206
    H   -0.943306    0.634516   -0.717565
    O   -0.916417    0.007397    0.010718

