%NProcShared=4
#p ccsd(t,maxcyc=200)/6-311++G(3df,2p)

 ccsd(t) iener

-1 3
    C   -0.786941   -0.460232   -0.542132
    C   -0.265587   -0.061678    0.788854
    H   -0.339569    0.868634    1.388908
    O    0.678361   -0.103736   -0.184277

