%NProcShared=4
#p ccsd(t,maxcyc=200)/6-311++G(3df,2p)

 ccsd(t) iener

-1 1
    C   -1.064843    0.886793   -0.437704
    C   -0.236101    0.089018    0.021918
    H    1.487293   -0.376680    0.644469
    O    0.644139   -0.823841    0.528425

