%NProcShared=4
#p ccsd(t,maxcyc=200)/6-311++G(3df,2p)

 ccsd(t) iener

-1 1
    C    0.320304   -0.184456    0.109517
    C   -0.851746    0.185289    0.366136
    H   -1.710924   -0.090577    0.934952
    O    1.467482   -0.425423   -0.222993

