%NProcShared=4
#p ccsd(t,maxcyc=200)/6-311++G(3df,2p)

 ccsd(t) iener

-1 3
    C    0.031642   -0.384489   -0.268923
    C    0.205230    0.908176    0.204697
    H   -0.553448    1.279879    0.923082
    O   -0.345074   -1.432387    0.249960

