%NProcShared=4
#p ccsd(t,maxcyc=200)/6-311++G(3df,2p)

 ccsd(t) iener

-1 3
    C   -1.060685    0.910206   -0.443062
    C   -0.262451    0.025017    0.032275
    H    1.569923   -0.374632    0.667509
    O    0.583702   -0.785301    0.500384

