%NProcShared=4
#p ccsd(t,maxcyc=200)/6-311++G(3df,2p)

 ccsd(t) iener

-1 1
    C   -1.022289   -0.110043    0.466848
    C    1.402974    0.194245   -0.260236
    H   -1.203675    0.597947    1.299854
    O    0.281719    0.128136    0.155247

