%NProcShared=4
#p ccsd(t,maxcyc=200)/6-311++G(3df,2p)

 ccsd(t) iener

-1 1
    C   -0.790881   -0.337715   -0.160438
    C   -0.039408    0.769541    0.294636
    H    0.177948    0.678843    1.371552
    O    0.480876   -0.615427   -0.428425

