%NProcShared=4
#p ccsd(t,maxcyc=200)/6-311++G(3df,2p)

 ccsd(t) iener

-1 1
    C   -0.903988   -0.003124    0.446274
    C    0.310507   -0.030623    0.128980
    H   -1.570342    0.422628    1.162543
    O    1.450086   -0.145894   -0.286443

