%NProcShared=4
#p ccsd(t,maxcyc=200)/6-311++G(3df,2p)

 ccsd(t) iener

-1 3
    C   -0.198707    0.004603   -0.405312
    C    0.672376    0.485623    0.387421
    C   -0.968726   -0.455707   -1.365346
    H   -1.955310   -0.889856   -1.425568
    O    1.492926    0.943696    1.168840

