%NProcShared=4
#p ccsd(t,maxcyc=200)/6-311++G(3df,2p)

 ccsd(t) iener

-1 1
    C   -0.078806    0.603474   -0.553958
    C    0.059724   -0.690868   -0.101552
    C    0.154435   -1.898522    0.231795
    H    0.602748    1.095726    1.176060
    O    0.298263    1.538452    0.355311

