%NProcShared=4
#p ccsd(t,maxcyc=200)/6-311++G(3df,2p)

 ccsd(t) iener

-1 3
    C   -0.657614    0.629667   -0.554497
    C    0.394563   -0.156555   -0.441589
    C   -1.670096    1.397528   -0.764372
    H    0.577703   -0.498363    1.425078
    O    1.047090   -0.754545    0.618844

