%NProcShared=4
#p ccsd(t,maxcyc=200)/6-311++G(3df,2p)

 ccsd(t) iener

-1 1
    C   -0.865723    0.486440   -0.481368
    C    0.323573   -0.791617    0.833542
    C    0.759796    0.455312    0.513165
    C    0.224039    1.424065   -0.262881
    H    0.697292   -1.599754    1.436116
    O   -0.842310   -0.859733    0.162599

