%NProcShared=4
#p ccsd(t,maxcyc=200)/6-311++G(3df,2p)

 ccsd(t) iener

-1 1
    C   -0.556026   -0.643331    0.000000
    H    0.044843   -1.737510    0.000000
    O    0.241005    0.283249    0.000000

