%NProcShared=4
#p ccsd(t,maxcyc=200)/6-311++G(3df,2p)

 ccsd(t) iener

-1 3
    C   -0.849822   -0.124008    0.000000
    H   -1.477524   -1.045699    0.000000
    O    0.397162   -0.088103    0.000000

