%NProcShared=4
#p ccsd(t,maxcyc=200)/6-311++G(3df,2p)

 ccsd(t) iener

-1 3
    C    1.143701    0.023319    0.000000
    H   -0.139939    1.488018    0.000000
    O   -0.200294    0.526180    0.000000

