%NProcShared=4
#p ccsd(t,maxcyc=200)/6-311++G(3df,2p)

 ccsd(t) iener

-1 1
    C   -0.850952   -0.136473    0.000000
    H   -1.135510   -1.352404    0.000000
    O    0.361432    0.019273    0.000000

