%NProcShared=4
#p ccsd(t,maxcyc=200)/6-311++G(3df,2p)

 ccsd(t) iener

-1 3
    C   -0.450837   -0.703954    0.000000
    H   -0.040154   -1.740946    0.000000
    O    0.220813    0.347307    0.000000

