%NProcShared=4
#p ccsd(t,maxcyc=200)/6-311++G(3df,2p)

 ccsd(t) iener

-1 3
    C   -1.197456    0.123994    0.000000
    H    0.602780   -1.553811   -0.000000
    O   -0.024185    0.361056    0.000000

