%NProcShared=4
#p ccsd(t,maxcyc=200)/6-311++G(3df,2p)

 ccsd(t) iener

-1 3
    C    1.039798   -0.211992    0.000000
    H   -0.442602    1.080819    0.000000
    O   -0.177139    0.069966    0.000000

