%NProcShared=4
#p ccsd(t,maxcyc=200)/6-311++G(3df,2p)

 ccsd(t) iener

-1 1
    H   -0.840131    0.000000    0.000000
    O    0.123950    0.000000    0.000000

