%NProcShared=4
#p ccsd(t,maxcyc=200)/6-311++G(3df,2p)

 ccsd(t) iener

-1 4
    C   -0.098828    0.315117    0.000000
    C   -1.498727   -0.212279   -0.000000
    O    1.035089   -0.126013    0.000000

