%NProcShared=4
#p ccsd(t,maxcyc=200)/6-311++G(3df,2p)

 ccsd(t) iener

-1 2
    C   -0.160656   -0.006997   -0.000000
    C   -1.465788   -0.057060    0.000000
    O    1.063978    0.040882   -0.000000

