%NProcShared=4
#p ccsd(t,maxcyc=200)/6-311++G(3df,2p)

 ccsd(t) iener

-1 4
    C    0.169483    1.001179    0.000000
    C    0.864392   -0.644901    0.000000
    O   -0.470854   -0.238930    0.000000

