%NProcShared=4
#p ccsd(t,maxcyc=200)/6-311++G(3df,2p)

 ccsd(t) iener

-1 4
    C    1.410421    0.597849   -0.000000
    C   -0.048832    0.135093    0.000000
    O   -0.863847   -0.770175    0.000000

