%NProcShared=4
#p ccsd(t,maxcyc=200)/6-311++G(3df,2p)

 ccsd(t) iener

-1 4
C  1.028377259 -0.865780810 -0.099842241
C  1.193400917  0.656582824  0.029777082
C -0.098616627  0.021135260  0.028104635
O -1.309923911  0.147056795  0.091335894

