%NProcShared=4
#p ccsd(t,maxcyc=200)/6-311++G(3df,2p)

 ccsd(t) iener

-1 4
    C   -0.087297    1.289288    0.043787
    C    1.288427   -1.103982    0.019136
    C    0.353379   -0.053081    0.012819
    O   -0.981357   -0.073718   -0.057038

