%NProcShared=4
#p ccsd(t,maxcyc=200)/6-311++G(3df,2p)

 ccsd(t) iener

-1 2
    C    0.040714    0.012234    0.006363
    C    0.348708   -0.587603    1.331087
    C   -0.216850    0.635264    1.332169
    C    0.016197    0.001416   -1.274112
    O   -0.006781   -0.008654   -2.473116

