%NProcShared=4
#p ccsd(t,maxcyc=200)/6-311++G(3df,2p)

 ccsd(t) iener

-1 2
    C    0.723080   -0.280741    0.071874
    C   -0.757456    0.180760   -0.095380
    C   -1.990562   -0.108679   -0.292625
    C    1.589617   -1.224554    0.111456
    O    0.309510    1.048935    0.128586

