%NProcShared=4
#p ccsd(t,maxcyc=200)/6-311++G(3df,2p)

 ccsd(t) iener

-1 4
    C   -0.810199    0.000000    0.000000
    O    0.489559    0.000000    0.000000

