%NProcShared=4
#p ccsd(t,maxcyc=200)/6-311++G(3df,2p)

 ccsd(t) iener

-1 2
C -0.000000000 -0.002827000 -1.500656000
H  0.000000000  0.877129799 -2.194359568
H -0.000000000 -0.874302799 -2.204984432

