%NProcShared=4
#p ccsd(t,maxcyc=200)/6-311++G(3df,2p)

 ccsd(t) iener

-1 4
    C   -0.000000   -0.000000    0.104157
    H    0.000000    1.002630   -0.308604
    H   -0.000000   -1.002630   -0.308604

