%NProcShared=4
#p ccsd(t,maxcyc=200)/6-311++G(3df,2p)

 ccsd(t) iener

-1 4
    C    0.000000   -0.000000   -0.014856
    H    0.000000    1.002651   -0.429138
    H   -0.000000   -1.002651   -0.429138

