%NProcShared=4
#p ccsd(t,maxcyc=200)/6-311++G(3df,2p)

 ccsd(t) iener

-1 2
    C    0.896773    0.416289   -0.160465
    C   -0.273301   -0.055355    0.268359
    H   -1.239105    0.469443    0.131584
    H   -0.393461   -1.017892    0.803132

