%NProcShared=4
#p ccsd(t,maxcyc=200)/6-311++G(3df,2p)

 ccsd(t) iener

-1 4
    C    1.241612   -0.584979    0.570008
    C    0.062741    0.217140    0.534728
    H    2.128202   -0.246800    1.101848
    H    1.291997   -1.550806    0.071449
    O   -1.001292    0.026426    0.011889

