%NProcShared=4
#p ccsd(t,maxcyc=200)/6-311++G(3df,2p)

 ccsd(t) iener

-1 4
    C    0.864256    0.403355   -0.148577
    C   -0.287582   -0.061126    0.273587
    H   -1.221261    0.488351    0.118679
    H   -0.364473   -1.018116    0.798881

