%NProcShared=4
#p ccsd(t,maxcyc=200)/6-311++G(3df,2p)

 ccsd(t) iener

-1 4
    C    0.698529    0.287677   -0.599965
    C   -0.581199    0.054578   -0.016000
    H    1.520128   -0.415217   -0.477865
    H    0.887484    1.183149   -1.187556
    O   -0.983164   -0.856270    0.655134

