%NProcShared=4
#p ccsd(t,maxcyc=200)/6-311++G(3df,2p)

 ccsd(t) iener

-1 4
    C    0.616103    0.357160   -0.034305
    C   -0.274362   -0.624802   -0.012252
    H    0.642592    1.281615    0.551322
    H   -1.178484   -0.726579    0.596421

