%NProcShared=4
#p ccsd(t,maxcyc=200)/6-311++G(3df,2p)

 ccsd(t) iener

-1 2
    C    0.896706    0.416440   -0.160471
    C   -0.273281   -0.055359    0.268345
    H   -1.239180    0.469329    0.131579
    H   -0.393306   -1.017947    0.803116

