%NProcShared=4
#p ccsd(t,maxcyc=200)/6-311++G(3df,2p)

 ccsd(t) iener

-1 4
C -1.369776000 -0.241895000 -0.373139000
O -0.541986000 -0.728127000  0.347550000
C -2.574506497  0.459003990 -0.069323150
H -3.214109973  0.835884030 -0.864131828
H -2.889726060  0.637677091  0.956734623

