%NProcShared=4
#p ccsd(t,maxcyc=200)/6-311++G(3df,2p)

 ccsd(t) iener

-1 4
    C    0.864495    0.403278   -0.148635
    C   -0.287179   -0.060949    0.273445
    H   -1.221234    0.487904    0.118991
    H   -0.365175   -1.017747    0.798809

