%NProcShared=4
#p ccsd(t,maxcyc=200)/6-311++G(3df,2p)

 ccsd(t) iener

-1 2
    C    0.317504    0.579224   -0.011591
    C   -0.456322   -0.280960    0.304908
    H    1.007681    1.346424   -0.293877
    H   -1.146499   -1.048160    0.587194

