%NProcShared=4
#p ccsd(t,maxcyc=200)/6-311++G(3df,2p)

 ccsd(t) iener

-1 2
    C    0.515761    0.327101   -0.065412
    C   -0.654635   -0.028837    0.358598
    H    0.855108    1.352133   -0.241793
    H   -0.993982   -1.053868    0.534980

