%NProcShared=4
#p ccsd(t,maxcyc=200)/6-311++G(3df,2p)

 ccsd(t) iener

-1 2
    C    0.317219    0.579563   -0.011597
    C   -0.456096   -0.281284    0.304815
    H    1.006677    1.347061   -0.293699
    H   -1.145554   -1.048782    0.586917

