%NProcShared=4
#p ccsd(t,maxcyc=200)/6-311++G(3df,2p)

 ccsd(t) iener

-1 4
    C    0.125271    0.457432    0.013213
    C    1.483581    0.113479   -0.120864
    H    2.067809   -0.752263   -0.394277
    H   -0.121752    1.478516    0.325935
    O   -0.775670   -0.363671   -0.213376

