%NProcShared=4
#p ccsd(t,maxcyc=200)/6-311++G(3df,2p)

 ccsd(t) iener

-1 2
C -0.618044839  0.874277987  0.098626347
C  1.039100262 -0.541766718 -0.077039096
O  0.775240983  0.826580512  0.015133036
C -0.106647142 -1.265700555 -0.051250419
C -1.155239609 -0.369669295  0.059905484
H -1.009389185  1.877568034  0.177685624
H  2.091455384 -0.772130253 -0.151018987

