%NProcShared=4
#p ccsd(t,maxcyc=200)/6-311++G(3df,2p)

 ccsd(t) iener

-1 4
    C    1.082543    0.842552   -0.361432
    C   -1.280395   -0.259185    0.418524
    C   -1.419295   -0.023249   -0.998521
    C   -0.238976    0.384230   -0.469933
    H   -1.075433   -1.184230    0.980152
    H    1.490497    0.815310    0.666661
    O    1.788155    1.291577   -1.313735

