%NProcShared=4
#p ccsd(t,maxcyc=200)/6-311++G(3df,2p)

 ccsd(t) iener

-1 4
C  1.134631439  0.116253855  0.086335008
H -0.800081495 -0.924136101 -0.401258317
H -0.992857495  0.637378899 -0.428924317
O -0.347234893 -0.080088379 -0.669939091

