%NProcShared=4
#p ccsd(t,maxcyc=200)/6-311++G(3df,2p)

 ccsd(t) iener

-1 2
    C    0.125016    0.226173   -0.419517
    H    0.677447   -0.473106   -1.072394
    H    0.366877    1.295133   -0.558130
    O   -0.734371   -0.174235    0.438035

