%NProcShared=4
#p ccsd(t,maxcyc=200)/6-311++G(3df,2p)

 ccsd(t) iener

-1 2
    C    0.544853   -0.307117   -0.263626
    H    0.406095   -1.415037   -0.200177
    H   -0.756697    1.098589   -0.372341
    O   -0.845680    0.148837   -0.317764

