%NProcShared=4
#p ccsd(t,maxcyc=200)/6-311++G(3df,2p)

 ccsd(t) iener

-1 2
    C    0.295691   -0.240863   -0.413712
    H    0.831149   -1.204456   -0.290968
    H    0.520020    0.294250   -1.359013
    O   -0.629067    0.114416    0.354141

