%NProcShared=4
#p ccsd(t,maxcyc=200)/6-311++G(3df,2p)

 ccsd(t) iener

-1 4
    C    1.098920   -0.288414    0.360599
    H   -0.286425    0.736594   -1.086076
    H   -0.614012    1.170294    0.391110
    O   -0.344942    0.384792   -0.157255

