%NProcShared=4
#p ccsd(t,maxcyc=200)/6-311++G(3df,2p)

 ccsd(t) iener

-1 2
    H   -0.718523    0.788348    0.000000
    H   -1.010103   -0.707324    0.000000
    O   -0.266865   -0.075966    0.000000

