%NProcShared=4
#p ccsd(t,maxcyc=200)/6-311++G(3df,2p)

 ccsd(t) iener

-1 2
    H    0.662053    0.805457    0.000000
    H    1.204039   -0.617802    0.000000
    O    0.363516   -0.123065    0.000000

