%NProcShared=4
#p ccsd(t,maxcyc=200)/6-311++G(3df,2p)

 ccsd(t) iener

-1 3
    H    0.386763   -0.711428    0.000000
    H   -0.386763   -0.711428   -0.000000
    H    0.000000    1.822855   -0.000000

