%NProcShared=4
#p ccsd(t,maxcyc=200)/6-311++G(3df,2p)

 ccsd(t) iener

-1 3
    C    0.000000   -0.000000    0.000000
    H   -0.000000    1.083160    0.000000
    H    0.938044   -0.541580    0.000000
    H   -0.938044   -0.541580    0.000000

