%NProcShared=4
#p ccsd(t,maxcyc=200)/6-311++G(3df,2p)

 ccsd(t) iener

-1 1
C  0.332192859  0.000366357 -0.098009131
H -0.092569594 -0.000992966  0.917801041
H -0.020291891  0.896769126 -0.631405676
H -0.019330822 -0.895223449 -0.633401789

