%NProcShared=4
#p ccsd(t,maxcyc=200)/6-311++G(3df,2p)

 ccsd(t) iener

-1 1
    C    0.144202   -0.606120   -0.000000
    H    1.063418   -1.203667   -0.000000
    H   -0.765135   -1.241257   -0.000000
    C    0.172127    0.743899   -0.000000
    H   -0.869352    1.135507   -0.000000

