%NProcShared=4
#p ccsd(t,maxcyc=200)/6-311++G(3df,2p)

 ccsd(t) iener

-1 3
    C   -0.071624   -0.561598    0.000000
    H    0.939844   -0.981679    0.000000
    H   -0.871500   -1.297857    0.000000
    C   -0.269253    0.724508   -0.000000
    H    0.274452    1.653410   -0.000000

