%NProcShared=4
#p ccsd(t,maxcyc=200)/6-311++G(3df,2p)

 ccsd(t) iener

-1 3
C -0.000701929 -0.448373866 -0.000000000
C  0.001334844  1.059378798  0.000000000
H -1.021797004 -0.889229835 -0.000000000
H  0.508949509 -0.891297670  0.883777718
H  0.508949509 -0.891297670 -0.883777718

