%NProcShared=4
#p ccsd(t,maxcyc=200)/6-311++G(3df,2p)

 ccsd(t) iener

-1 3
C  0.000435320 -0.486300985  0.000027343
C -0.000795444  1.021747973 -0.000003346
H -1.019501233 -0.929682983 -0.000036999
H  0.510881827 -0.928416008  0.883677070
H  0.511008897 -0.928451867 -0.883531026

