%NProcShared=4
#p ccsd(t,maxcyc=200)/6-311++G(3df,2p)

 ccsd(t) iener

-1 3
    C   -0.074112   -0.569636    0.000000
    H    0.936189   -0.992196    0.000000
    H   -0.876921   -1.302860    0.000000
    C   -0.266822    0.717462   -0.000000
    H    0.281589    1.643610   -0.000000

