%NProcShared=4
#p ccsd(t,maxcyc=200)/6-311++G(3df,2p)

 ccsd(t) iener

-1 3
    C    0.053911   -0.583403    0.000000
    H    0.965386   -1.176035    0.000000
    H   -0.874019   -1.165181    0.000000
    C    0.033792    0.717865    0.000000
    H   -0.658646    1.541859    0.000000

