%NProcShared=4
#p ccsd(t,maxcyc=200)/6-311++G(3df,2p)

 ccsd(t) iener

-1 1
    C   -0.091948   -0.510292    0.000000
    H    0.951276   -0.887173    0.000000
    H   -0.824346   -1.325841    0.000000
    C   -0.469918    0.785812   -0.000000
    H    0.434858    1.433875   -0.000000

