%NProcShared=4
#p ccsd(t,maxcyc=200)/6-311++G(3df,2p)

 ccsd(t) iener

-1 1
    C   -0.092251   -0.502074    0.000000
    H    0.950513   -0.880545    0.000000
    H   -0.825797   -1.316573    0.000000
    C   -0.468147    0.794663   -0.000000
    H    0.437601    1.441314   -0.000000

