%NProcShared=4
#p ccsd(t,maxcyc=200)/6-311++G(3df,2p)

 ccsd(t) iener

-1 1
    C    0.062046   -0.521391    0.000000
    H    0.916996   -1.207792    0.000000
    H   -0.905501   -1.065270    0.000000
    C    0.222679    0.819133    0.000000
    H   -0.775797    1.310424    0.000000

