%NProcShared=4
#p ccsd(t,maxcyc=200)/6-311++G(3df,2p)

 ccsd(t) iener

-1 3
    C    0.141366   -0.668092   -0.000000
    H    1.105895   -1.170041   -0.000000
    H   -0.726026   -1.336648   -0.000000
    C   -0.003204    0.625269   -0.000000
    H   -0.772770    1.377874   -0.000000

