%NProcShared=4
#p ccsd(t,maxcyc=200)/6-311++G(3df,2p)

 ccsd(t) iener

-1 3
    C    0.816558   -1.006603    0.000000
    C   -0.000476    1.096554   -0.000000
    O    1.127331    0.356684   -0.000000
    C   -1.128503    0.283683    0.000000
    C   -0.639434   -1.003747   -0.000000
    H    0.104275    2.173412   -0.000000
    H   -2.150556    0.632133    0.000000
    H   -1.228577   -1.909825   -0.000000

