%NProcShared=4
#p ccsd(t,maxcyc=200)/6-311++G(3df,2p)

 ccsd(t) iener

-1 3
C -0.659815000  0.885731000  0.107537000
C  0.055128000 -1.144478000 -0.056623000
O -1.066465174 -0.438390105  0.025286995
C  1.184943396 -0.405355956 -0.036377351
C  0.690054209  0.945015510  0.073362060
H -1.447690668  1.613669412  0.181507877
H  2.208377108 -0.735741001 -0.088879219
H  1.290786079  1.840586630  0.119732905

