%NProcShared=4
#p ccsd(t,maxcyc=200)/6-311++G(3df,2p)

 ccsd(t) iener

-1 1
    C    0.780441   -1.032537    0.000000
    C   -0.018269    1.113660    0.000000
    O    1.112356    0.353776   -0.000000
    C   -1.115272    0.312638   -0.000000
    C   -0.607322   -1.030789    0.000000
    H    0.103705    2.186678    0.000000
    H   -2.143837    0.647095   -0.000000
    H   -1.211184   -1.928231    0.000000

