%NProcShared=4
#p ccsd(t,maxcyc=200)/6-311++G(3df,2p)

 ccsd(t) iener

-1 3
    C    0.425812   -0.309843    0.783547
    H    0.368651    0.889937   -0.713063
    H    0.528592   -1.355205    1.035208
    H   -0.226901    0.344603    1.347333
    O    0.664481   -0.022910   -0.520877

