%NProcShared=4
#p ccsd(t,maxcyc=200)/6-311++G(3df,2p)

 ccsd(t) iener

-1 1
    C   -0.058101   -0.197097   -0.463162
    H   -0.517438    0.522024    0.290270
    H   -0.522861    0.144217   -1.444227
    H   -0.617122   -1.165401   -0.249297
    O    1.268983   -0.279895   -0.449497

