%NProcShared=4
#p ccsd(t,maxcyc=200)/6-311++G(3df,2p)

 ccsd(t) iener

-1 1
    C   -0.940820    0.311986    0.625935
    H    1.151282   -0.672415   -1.462044
    H    0.573048    0.099892   -0.205480
    H   -0.707816    1.006429    1.480213
    O    1.458561   -0.080473   -0.769011

