%NProcShared=4
#p ccsd(t,maxcyc=200)/6-311++G(3df,2p)

 ccsd(t) iener

-1 3
    C   -1.151538    0.236317   -0.319667
    H   -1.442957   -0.816429   -0.543595
    H    0.908002    0.621989    0.288259
    H    0.821907   -0.907782   -0.107416
    O    0.316725   -0.163490    0.329577

