%NProcShared=4
#p ccsd(t,maxcyc=200)/6-311++G(3df,2p)

 ccsd(t) iener

-1 2
C  0.000154000 -0.000134625  0.001779312
H  0.629112695  0.632249320  0.630249278
H -0.627639924 -0.630746668  0.633187447
H -0.631927552  0.627356201 -0.628459663
H  0.631070780 -0.629397354 -0.627859811

