%NProcShared=8
#p ccsd(t,maxcyc=200)/6-311++G(3df,2p) scf(QC)

 ccsd(t) iener

-1 2
    C    0.568491    0.673579   -0.133987
    C   -0.761954    0.445402    0.502638
    H   -1.391730    1.325327    0.315719
    H   -1.301266   -0.454786    0.180041
    H   -0.624277    0.408615    1.591445
    H    0.210338   -0.971637   -1.102138
    O    0.888872   -0.252043   -0.992948

