%NProcShared=4
#p ccsd(t,maxcyc=200)/6-311++G(3df,2p)

 ccsd(t) iener

-1 2
    C    0.576779   -0.135102    0.222971
    C   -0.659557   -0.337182   -0.214334
    H   -1.233357    0.449150   -0.691871
    H    1.150579   -0.921434    0.700508
    H   -1.152207   -1.297826   -0.114012
    H    1.069429    0.825542    0.122649

