%NProcShared=4
#p ccsd(t,maxcyc=200)/6-311++G(3df,2p)

 ccsd(t) iener

-1 2
    C    1.157648    0.302070    0.149656
    C   -0.203263   -0.374576    0.233905
    H   -1.052139    0.333862    0.371644
    H   -0.270073   -1.080529    1.071933
    H   -0.472559   -0.961987   -0.673770
    H    1.112093    0.989756   -0.728024

