%NProcShared=4
#p ccsd(t,maxcyc=200)/6-311++G(3df,2p)

 ccsd(t) iener

-1 4
C  0.880924772  0.241131042 -0.443180653
C -0.345049940 -0.441246828 -0.046262311
H -1.167661380  0.262297277  0.154841097
H -0.210508977 -1.044278691  0.864977378
H -0.705983058 -1.127103336 -0.821684783
H  1.535616437  0.968577178  0.012821874

