%NProcShared=4
#p ccsd(t,maxcyc=200)/6-311++G(3df,2p)

 ccsd(t) iener

-1 4
    C   -1.199736    1.003613    0.179867
    C    0.983753   -0.228776    0.467663
    C   -0.506485   -0.285086    0.250100
    H    1.316497    0.461513    1.263488
    H   -0.679517   -0.901628   -0.641336
    H   -2.198940    1.340508    0.451247
    H   -0.995134   -0.854731    1.095371
    O    1.789927   -0.996210   -0.089279

