%NProcShared=4
#p ccsd(t,maxcyc=200)/6-311++G(3df,2p)

 ccsd(t) iener

-1 2
    C   -1.108030   -0.002795    0.397907
    C    2.039169   -0.458627   -0.048479
    O   -0.865957   -1.167236    0.489011
    C    1.494019    0.749087   -0.099340
    C    0.089933    1.122157    0.081006
    H   -0.050143    1.825538    0.909072
    H    1.451666   -1.364145    0.147530
    H    3.107581   -0.613966   -0.199366
    H   -0.320789    1.632664   -0.797004

