%NProcShared=4
#p ccsd(t,maxcyc=200)/6-311++G(3df,2p)

 ccsd(t) iener

-1 2
    C   -0.000000    1.093270    0.340763
    C    0.000000   -1.093270    0.340763
    O    0.000000   -0.000000    1.153660
    C   -0.000000   -0.715415   -0.959508
    C    0.000000    0.715415   -0.959508
    H   -0.000000    2.049839    0.834326
    H    0.000000   -2.049839    0.834326
    H   -0.000000   -1.371457   -1.815528
    H    0.000000    1.371457   -1.815528

