%NProcShared=4
#p ccsd(t,maxcyc=200)/6-311++G(3df,2p)

 ccsd(t) iener

-1 2
    C    3.086275    3.317723    0.902995
    C    3.168756    1.792741    0.866896
    O    4.323472    1.257126    0.869140
    C    1.964818    1.097511    0.842935
    C    0.880788    0.502904    0.646400
    H    3.622092    3.735217    0.041847
    H    3.583541    3.701518    1.801589
    H    2.057123    3.681659    0.887511
    H    0.099445    0.039296    1.230214

