%NProcShared=4
#p ccsd(t,maxcyc=200)/6-311++G(3df,2p)

 ccsd(t) iener

-1 1
    C    0.165178    0.000000    0.000000
    H   -0.965468    0.000000    0.000000

