%NProcShared=4
#p ccsd(t,maxcyc=200)/6-311++G(3df,2p)

 ccsd(t) iener

-1 3
    H   -0.902950   -1.161938   -0.000000
    C    0.078742    0.770883    0.000000
    C    0.073904   -0.571932   -0.000000

