%NProcShared=4
#p ccsd(t,maxcyc=200)/6-311++G(3df,2p)

 ccsd(t) iener

-1 3
    H    0.000000    0.459699   -1.472026
    C    0.000000   -0.285877   -0.608040
    C    0.000000    0.126178    0.669999

