%NProcShared=4
#p ccsd(t,maxcyc=200)/6-311++G(3df,2p)

 ccsd(t) iener

-1 1
    H   -0.749995   -1.328405    0.000000
    C    0.275146    0.737540    0.000000
    C   -0.275456   -0.372122    0.000000

