%NProcShared=4
#p ccsd(t,maxcyc=200)/6-311++G(3df,2p)

 ccsd(t) iener

-1 1
    H    0.000000   -0.000000    1.010263
    C    0.000000    0.636314   -0.078837
    C   -0.000000   -0.636314   -0.078837

