%NProcShared=4
#p ccsd(t,maxcyc=200)/6-311++G(3df,2p)

 ccsd(t) iener

-1 1
    C   -0.061300   -0.291862    0.014344
    C   -0.259523    0.945303    0.095381
    H   -0.936383    1.658083    0.510137
    O    0.248088   -1.460060   -0.142202

