%NProcShared=4
#p ccsd(t,maxcyc=200)/6-311++G(3df,2p)

 ccsd(t) iener

-1 3
    C   -0.276874   -0.120622    0.740944
    C   -0.500679    0.822218   -0.382755
    H   -0.715041   -1.103291    1.010894
    O    0.717711   -0.113472   -0.181471

