%NProcShared=4
#p ccsd(t,maxcyc=200)/6-311++G(3df,2p)

 ccsd(t) iener

-1 1
    C   -0.841455    1.077241   -0.430430
    C   -0.177258    0.128580    0.009617
    H    1.380904   -0.626590    0.768908
    O    0.519126   -0.945152    0.485665

