%NProcShared=4
#p ccsd(t,maxcyc=200)/6-311++G(3df,2p)

 ccsd(t) iener

-1 3
    C    0.119352    0.420035   -0.153964
    C    0.858943    1.277557   -0.757128
    H    0.032768   -1.079718    1.135780
    O   -0.548587   -0.430681    0.495454

