%NProcShared=4
#p ccsd(t,maxcyc=200)/6-311++G(3df,2p)

 ccsd(t) iener

-1 3
    C   -0.123652    0.082308    0.304716
    C    0.226807    1.351286   -0.220819
    H   -0.727326    0.107486    1.258611
    O    0.145434   -1.062077   -0.145567

