%NProcShared=4
#p ccsd(t,maxcyc=200)/6-311++G(3df,2p)

 ccsd(t) iener

-1 1
    C    0.169269   -1.487735   -0.181613
    C   -0.035006    1.023430    0.210620
    H   -0.795808    1.166571    1.003506
    O   -0.000105   -0.331088    0.076303

