%NProcShared=4
#p ccsd(t,maxcyc=200)/6-311++G(3df,2p)

 ccsd(t) iener

-1 3
    C   -0.293851   -0.378462    0.171881
    C   -0.118867    1.022342   -0.003637
    H   -0.927760    1.560069    0.510828
    O    0.331360   -1.352486   -0.201413

