%NProcShared=4
#p ccsd(t,maxcyc=200)/6-311++G(3df,2p)

 ccsd(t) iener

-1 3
    C   -0.987478   -0.366095   -0.303783
    C   -0.022049    0.571489    0.323389
    H    0.280337    0.765163    1.371997
    O    0.557725   -0.475316   -0.314277

