%NProcShared=4
#p ccsd(t,maxcyc=200)/6-311++G(3df,2p)

 ccsd(t) iener

-1 1
    C    0.122687   -0.256498   -0.004016
    C   -0.663320    0.661257    0.337480
    H   -1.097893    1.106962    1.203933
    O    0.860932   -1.104941   -0.472218

