%NProcShared=4
#p ccsd(t,maxcyc=200)/6-311++G(3df,2p)

 ccsd(t) iener

-1 1
    C   -0.582379    0.570302   -0.516576
    C    0.529509   -0.238820   -0.596347
    C   -1.593753    1.315628   -0.532848
    H    0.378337   -0.339985    1.318897
    O    0.959932   -0.689393    0.610338

