%NProcShared=4
#p ccsd(t,maxcyc=200)/6-311++G(3df,2p)

 ccsd(t) iener

-1 1
    C    0.490966    0.051054   -0.221012
    C   -1.901900   -1.082040   -0.196779
    C   -0.797764   -0.505105   -0.144789
    H    1.113607   -0.358250   -1.050134
    O    1.000140    0.912920    0.498680

