%NProcShared=4
#p ccsd(t,maxcyc=200)/6-311++G(3df,2p)

 ccsd(t) iener

-1 3
    C   -0.011980    0.494962   -0.373224
    C    0.054545   -0.794320   -0.107239
    C    0.084265   -2.070787    0.062356
    H    0.618596    1.372973    1.197125
    O    0.290938    1.645435    0.328638

