%NProcShared=4
#p ccsd(t,maxcyc=200)/6-311++G(3df,2p)

 ccsd(t) iener

-1 3
    C   -0.642025    0.060797   -0.162528
    C   -1.867750   -0.424234    0.151391
    C    0.590667   -0.511643    0.300430
    H   -0.495104    0.952192   -0.812079
    O    1.745143   -0.218065    0.124059

