%NProcShared=4
#p ccsd(t,maxcyc=200)/6-311++G(3df,2p)

 ccsd(t) iener

-1 3
    C   -0.815678   -0.255606    0.000000
    H   -1.191729   -1.305517    0.000000
    O    0.382377    0.091519    0.000000

