%NProcShared=4
#p ccsd(t,maxcyc=200)/6-311++G(3df,2p)

 ccsd(t) iener

-1 1
    C   -0.856730   -0.001226    0.000000
    H   -1.430253   -1.110126    0.000000
    O    0.356799   -0.146459    0.000000

