%NProcShared=4
#p ccsd(t,maxcyc=200)/6-311++G(3df,2p)

 ccsd(t) iener

-1 1
    C   -0.942562    0.032624   -0.000000
    H    0.544008   -2.019788   -0.000000
    O   -0.220307    0.918403   -0.000000

