%NProcShared=4
#p ccsd(t,maxcyc=200)/6-311++G(3df,2p)

 ccsd(t) iener

-1 3
    H   -0.858110    0.000000    0.000000
    O    0.141929    0.000000    0.000000

