#p b3lyp/6-311++G(3df,2p) opt freq symmetry=Loose

 b3lyp opt

-1 4
    C    0.623543    0.000000    0.000000
    C   -0.623543    0.000000    0.000000

