%NProcShared=2
#p b3lyp/6-311++G(3df,2p) freq IOp(2/17=3) IOp(2/18=3)

 b3lyp opt

-1 2
    C   -0.160656   -0.006997   -0.000000
    C   -1.465788   -0.057060    0.000000
    O    1.063978    0.040882   -0.000000

