%NProcShared=2
#p b3lyp/6-311++G(3df,2p) freq IOp(2/17=3) IOp(2/18=3)

 b3lyp opt

-1 4
    C    0.169483    1.001179    0.000000
    C    0.864392   -0.644901    0.000000
    O   -0.470854   -0.238930    0.000000

