%NProcShared=2
#p b3lyp/6-311++G(3df,2p) freq IOp(2/17=3) IOp(2/18=3)

 b3lyp opt

-1 4
    C   -0.087297    1.289288    0.043787
    C    1.288427   -1.103982    0.019136
    C    0.353379   -0.053081    0.012819
    O   -0.981357   -0.073718   -0.057038

