%NProcShared=2
#p b3lyp/6-311++G(3df,2p) freq IOp(2/17=3) IOp(2/18=3)

 b3lyp opt

-1 4
    C    0.699092   -0.225462    0.061080
    C    1.930360   -0.635645    0.221539
    C   -0.510818    0.116929   -0.124923
    O   -1.670966    0.482510   -0.285910

