%NProcShared=2
#p b3lyp/6-311++G(3df,2p) freq IOp(2/17=3) IOp(2/18=3)

 b3lyp opt

-1 2
    C   -0.121642   -0.017526    0.014761
    C   -1.096635    0.876607   -0.123702
    C    0.799390   -0.861573    0.145720
    C   -2.027317    1.730267   -0.255735
    O    1.681836   -1.670516    0.271344

