%NProcShared=2
#p b3lyp/6-311++G(3df,2p) freq IOp(2/17=3) IOp(2/18=3)

 b3lyp opt

-1 2
    C    0.279840    0.085372   -0.002390
    C    1.490861    0.534752    0.735938
    C    1.684724   -0.010929   -0.480692
    C   -0.983384   -0.085005   -0.126458
    O   -2.166049   -0.245212   -0.242698

