#p b3lyp/6-311++G(3df,2p) opt freq symmetry=Loose

 b3lyp opt

-1 2
    H    0.4    0.000000    0.000000
    H   -0.4    0.000000    0.000000

