%NProcShared=4
#p b3lyp/6-311++G(3df,2p) freq IOp(2/17=3) IOp(2/18=3)

 b3lyp opt

-1 2
C -0.000000000 -0.002827000 -1.500656000
H  0.000000000  0.877129799 -2.194359568
H -0.000000000 -0.874302799 -2.204984432

