#p b3lyp/6-311++G(3df,2p) opt freq symmetry=Loose

 b3lyp opt

-1 4
    C    0.000000    0.000000    0.102610
    H    0.000000    0.996161   -0.307831
    H    0.000000   -0.996161   -0.307831

