%NProcShared=2
#p b3lyp/6-311++G(3df,2p) freq IOp(2/17=3) IOp(2/18=3)

 b3lyp opt

-1 4
C -1.369776000 -0.241895000 -0.373139000
O -0.541986000 -0.728127000  0.347550000
C -2.574506497  0.459003990 -0.069323150
H -3.214109973  0.835884030 -0.864131828
H -2.889726060  0.637677091  0.956734623

