%NProcShared=2
#p b3lyp/6-311++G(3df,2p) freq IOp(2/17=3) IOp(2/18=3)

 b3lyp opt

-1 4
C  1.362707000 -0.544114000  0.356350000
C  0.246325000  0.203389000  0.050714000
H  2.346769334 -0.050925735  0.353236799
H -1.136201666 -1.147512933  0.210738434
O -0.991034167 -0.182878458 -0.000691890

