%NProcShared=2
#p b3lyp/6-311++G(3df,2p) freq IOp(2/17=3) IOp(2/18=3)

 b3lyp opt

-1 4
    C    1.486385    0.530630    0.430589
    C    0.577084   -0.215905   -0.343854
    H    0.865877   -1.091798   -0.917507
    H   -1.025734    0.808161    0.013024
    O   -0.713960    0.012417   -0.495402

