%NProcShared=2
#p b3lyp/6-311++G(3df,2p) freq IOp(2/17=3) IOp(2/18=3)

 b3lyp opt

-1 2
    C    1.362542   -0.426219    0.328776
    C    0.261613    0.151410    0.064863
    H    2.388421   -0.111328    0.373010
    H   -1.136507   -1.150113    0.210895
    O   -1.047565   -0.185663   -0.006656

