%NProcShared=2
#p b3lyp/6-311++G(3df,2p) freq IOp(2/17=3) IOp(2/18=3)

 b3lyp opt

-1 4
    C    1.241612   -0.584979    0.570008
    C    0.062741    0.217140    0.534728
    H    2.128202   -0.246800    1.101848
    H    1.291997   -1.550806    0.071449
    O   -1.001292    0.026426    0.011889

