%NProcShared=2
#p b3lyp/6-311++G(3df,2p) freq IOp(2/17=3) IOp(2/18=3)

 b3lyp opt

-1 4
    C    0.982843   -0.874649   -0.075324
    C   -2.647862    0.317699    0.337253
    C   -0.298223   -0.359200   -0.555591
    C   -1.450360   -0.028830   -0.048483
    H    1.601250    0.912823    0.100172
    H    1.019225   -1.789792    0.517803
    O    1.884613    0.058458    0.448328

