%NProcShared=2
#p b3lyp/6-311++G(3df,2p) freq IOp(2/17=3) IOp(2/18=3)

 b3lyp opt

-1 4
    C    1.082543    0.842552   -0.361432
    C   -1.280395   -0.259185    0.418524
    C   -1.419295   -0.023249   -0.998521
    C   -0.238976    0.384230   -0.469933
    H   -1.075433   -1.184230    0.980152
    H    1.490497    0.815310    0.666661
    O    1.788155    1.291577   -1.313735

