%NProcShared=2
#p b3lyp/6-311++G(3df,2p) freq IOp(2/17=3) IOp(2/18=3)

 b3lyp opt

-1 2
C -0.940118000  0.672719000 -0.223411000
C  1.054552000 -0.187808000  0.408118000
O  0.326868531  1.021771552  0.150348287
C  0.198618724 -1.175571656  0.178605449
C -1.083709438 -0.685334031 -0.225465131
H -1.622753353  1.479240207 -0.455191074
H -1.986303571 -1.221863797 -0.482929341

