%NProcShared=2
#p b3lyp/6-311++G(3df,2p) freq IOp(2/17=3) IOp(2/18=3)

 b3lyp opt

-1 2
    C    0.068305    0.570720   -0.471975
    H    0.887506    0.335189   -1.181815
    H   -0.134000    1.653838   -0.344116
    O   -0.691448   -0.311795   -0.009117

