%NProcShared=2
#p b3lyp/6-311++G(3df,2p) freq IOp(2/17=3) IOp(2/18=3)

 b3lyp opt

-1 4
    C    0.197781    0.579294   -0.327566
    H    0.821120    0.342208   -1.213446
    H   -0.170721    1.622592   -0.400070
    O   -0.717818   -0.296144   -0.065941

