%NProcShared=2
#p b3lyp/6-311++G(3df,2p) freq IOp(2/17=3) IOp(2/18=3)

 b3lyp opt

-1 4
C  1.134631439  0.116253855  0.086335008
H -0.800081495 -0.924136101 -0.401258317
H -0.992857495  0.637378899 -0.428924317
O -0.347234893 -0.080088379 -0.669939091

