%NProcShared=2
#p b3lyp/6-311++G(3df,2p) freq IOp(2/17=3) IOp(2/18=3)

 b3lyp opt

-1 4
    C    0.693035    0.134539    0.096812
    H    1.037395    0.977588    0.700165
    H   -0.809943   -0.918643    0.722014
    O   -0.563350   -0.257774    0.022375

