%NProcShared=2
#p b3lyp/6-311++G(3df,2p) freq IOp(2/17=3) IOp(2/18=3)

 b3lyp opt

-1 2
    C    0.537085    0.089872   -0.587207
    H    0.671367    1.198647   -0.740054
    H   -0.507249    0.858005    0.948369
    O   -0.295268   -0.018959    0.609648

