%NProcShared=4
#p b3lyp/6-311++G(3df,2p) freq IOp(2/17=3) IOp(2/18=3)

 b3lyp opt

-1 1
C  0.332192859  0.000366357 -0.098009131
H -0.092569594 -0.000992966  0.917801041
H -0.020291891  0.896769126 -0.631405676
H -0.019330822 -0.895223449 -0.633401789

