#p b3lyp/6-311++G(3df,2p) opt freq symmetry=Loose

 b3lyp opt

-1 3
    C    0.000000    0.000000    0.000000
    H    0.000000    1.078592    0.000000
    H    0.934088   -0.539296    0.000000
    H   -0.934088   -0.539296    0.000000

