%NProcShared=4
#p b3lyp/6-311++G(3df,2p) freq IOp(2/17=3) IOp(2/18=3)

 b3lyp opt

-1 3
C  0.049931800  0.000171600 -0.111250333
H  0.019263407 -0.006669473  0.971572629
H  0.056970182  0.941685135 -0.646970078
H  0.073561811 -0.934500862 -0.658353552

