%NProcShared=4
#p b3lyp/6-311++G(3df,2p) freq IOp(2/17=3) IOp(2/18=3)

 b3lyp opt

-1 3
    C    1.453410    0.748916    0.870182
    C    1.347607   -0.259210    0.105278
    H    1.578343   -1.126010   -0.474168
    H   -0.976113   -1.455968   -0.369658
    H   -0.683043   -0.561764   -1.580954
    O   -0.827796   -0.515934   -0.611003

