%NProcShared=4
#p b3lyp/6-311++G(3df,2p) freq IOp(2/17=3) IOp(2/18=3)

 b3lyp opt

-1 3
    C    0.064754   -0.050783   -0.151458
    C    0.872807   -1.082041   -0.306387
    H    0.737159   -1.793351   -1.119123
    H    1.715246   -1.232854    0.359575
    H   -1.206777    1.321241   -0.629344
    O   -1.055253    0.336121   -0.702979

