%NProcShared=4
#p b3lyp/6-311++G(3df,2p) freq IOp(2/17=3) IOp(2/18=3)

 b3lyp opt

-1 3
    C    1.132380   -0.458227    0.309645
    C    0.112967    0.591570    0.051020
    H    0.065087    0.900279   -1.011859
    H    0.274925    1.513130    0.644050
    H   -1.073040   -0.776013    0.705134
    O   -1.248779    0.124997    0.396653

