#p b3lyp/6-311++G(3df,2p) opt freq symmetry=Loose

 b3lyp opt

-1 3
    C    0.025474   -0.594490    0.000000
    H    1.115930   -1.376274    0.000000
    H   -0.597125   -1.583962    0.000000
    C    0.025474    0.828817    0.000000
    H   -0.824492    1.554271    0.000000

