%NProcShared=4
#p b3lyp/6-311++G(3df,2p) freq IOp(2/17=3) IOp(2/18=3)

 b3lyp opt

-1 3
C  0.000435320 -0.486300985  0.000027343
C -0.000795444  1.021747973 -0.000003346
H -1.019501233 -0.929682983 -0.000036999
H  0.510881827 -0.928416008  0.883677070
H  0.511008897 -0.928451867 -0.883531026

