%NProcShared=4
#p b3lyp/6-311++G(3df,2p) freq IOp(2/17=3) IOp(2/18=3)

 b3lyp opt

-1 3
C -0.000701929 -0.448373866 -0.000000000
C  0.001334844  1.059378798  0.000000000
H -1.021797004 -0.889229835 -0.000000000
H  0.508949509 -0.891297670  0.883777718
H  0.508949509 -0.891297670 -0.883777718

