#p b3lyp/6-311++G(3df,2p) opt freq symmetry=Loose

 b3lyp opt

-1 3
    C    0.047958   -0.584170    0.000000
    H    0.964874   -1.165527    0.000000
    H   -0.878689   -1.160362    0.000000
    C    0.047958    0.717149    0.000000
    H   -0.661678    1.528014    0.000000

