%NProcShared=2
#p b3lyp/6-311++G(3df,2p) freq IOp(2/17=3) IOp(2/18=3)

 b3lyp opt

-1 1
C -0.011765110 -0.314269542  0.703365751
H  0.303913978  0.533317249 -1.021381121
H  0.457693460 -1.292148051  0.924252603
H  0.109227681  0.276800014  1.631496266
O  0.901474388  0.343289268 -0.305399610

