%NProcShared=4
#p b3lyp/6-311++G(3df,2p) freq IOp(2/17=3) IOp(2/18=3)

 b3lyp opt

-1 2
C  0.000154000 -0.000134625  0.001779312
H  0.629112695  0.632249320  0.630249278
H -0.627639924 -0.630746668  0.633187447
H -0.631927552  0.627356201 -0.628459663
H  0.631070780 -0.629397354 -0.627859811

