%NProcShared=4
#p b3lyp/6-311++G(3df,2p) freq IOp(2/17=3) IOp(2/18=3)

 b3lyp opt

-1 4
    C   -2.123952    1.050359   -0.252575
    C    0.320302    0.290062   -0.611068
    C   -1.088947    0.018196   -0.317875
    H    1.901965   -0.837725   -0.857675
    H    0.432969    0.441133   -1.719428
    H    0.615361    1.250834   -0.171148
    H   -1.358221   -1.042919   -0.340545
    O    1.177116   -0.768509   -0.206437

