%NProcShared=4
#p b3lyp/6-311++G(3df,2p) freq IOp(2/17=3) IOp(2/18=3)

 b3lyp opt

-1 2
    C   -0.102607    1.536763   -0.500978
    C    0.324524    0.268854    0.127515
    C   -0.871028    0.222407   -0.760883
    H    1.968806    0.389045   -0.834031
    H   -0.787429   -0.236908   -1.747532
    H    0.194009    0.074792    1.194688
    H   -1.848307    0.033081   -0.300805
    O    1.580727   -0.315161   -0.297574

