%NProcShared=4
#p b3lyp/6-311++G(3df,2p) freq IOp(2/17=3) IOp(2/18=3)

 b3lyp opt

-1 2
    C   -1.721743    0.354374    0.519751
    C    0.391328    0.430774   -0.850143
    C   -1.001919   -0.044846   -0.532423
    H    1.038619   -0.945248    0.335993
    H    0.551144    0.571105   -1.926342
    H    0.578480    1.380859   -0.339316
    H   -1.372726   -0.815929   -1.235911
    O    1.413410   -0.529659   -0.448360

