%NProcShared=2
#p b3lyp/6-311++G(3df,2p) freq IOp(2/17=3) IOp(2/18=3)

 b3lyp opt

-1 4
    O   -2.862818    1.081987    0.274244
    C    1.814092   -0.014248    0.009121
    C    0.363815   -0.039877   -0.010391
    C   -0.858644   -0.032318   -0.013592
    C   -2.231110   -0.054379   -0.028597
    H    2.207387    0.152325    1.019466
    H    2.214654    0.772851   -0.641928
    H    2.221531   -0.963823   -0.344813
    H   -2.869007   -0.902517   -0.263512

