%NProcShared=1
#p b3lyp/6-311++G(3df,2p) freq IOp(2/17=3) IOp(2/18=3)

 b3lyp opt

-1 1
    H   -0.749995   -1.328405    0.000000
    C    0.275146    0.737540    0.000000
    C   -0.275456   -0.372122    0.000000

