#p b3lyp/6-311++G(3df,2p) opt freq symmetry=Loose

 b3lyp opt

-1 3
    H    0.000000    0.000000    1.547062
    C    0.000000    0.000000    0.484003
    C    0.000000    0.000000   -0.715380

