#p b3lyp/6-311++G(3df,2p) opt freq symmetry=Loose

 b3lyp opt

-1 1
    H    0.000000    0.459234   -1.465379
    C    0.000000   -0.304966   -0.662948
    C    0.000000    0.145732    0.718260

