%NProcShared=2
#p b3lyp/6-311++G(3df,2p) freq IOp(2/17=3) IOp(2/18=3)

 b3lyp opt

-1 1
    C   -1.064843    0.886793   -0.437704
    C   -0.236101    0.089018    0.021918
    H    1.487293   -0.376680    0.644469
    O    0.644139   -0.823841    0.528425

