%NProcShared=2
#p b3lyp/6-311++G(3df,2p) freq IOp(2/17=3) IOp(2/18=3)

 b3lyp opt

-1 3
    C   -0.786941   -0.460232   -0.542132
    C   -0.265587   -0.061678    0.788854
    H   -0.339569    0.868634    1.388908
    O    0.678361   -0.103736   -0.184277

