%NProcShared=2
#p b3lyp/6-311++G(3df,2p) freq IOp(2/17=3) IOp(2/18=3)

 b3lyp opt

-1 3
    C    0.119352    0.420035   -0.153964
    C    0.858943    1.277557   -0.757128
    H    0.032768   -1.079718    1.135780
    O   -0.548587   -0.430681    0.495454

