%NProcShared=2
#p b3lyp/6-311++G(3df,2p) freq IOp(2/17=3) IOp(2/18=3)

 b3lyp opt

-1 3
    C    0.031642   -0.384489   -0.268923
    C    0.205230    0.908176    0.204697
    H   -0.553448    1.279879    0.923082
    O   -0.345074   -1.432387    0.249960

