%NProcShared=2
#p b3lyp/6-311++G(3df,2p) freq IOp(2/17=3) IOp(2/18=3)

 b3lyp opt

-1 3
    C   -0.379633   -0.239158    0.024150
    C    0.861672    0.197156   -0.516402
    H    1.091189   -0.382322   -1.421631
    O   -1.031054    0.090911    0.996490

