%NProcShared=2
#p b3lyp/6-311++G(3df,2p) freq IOp(2/17=3) IOp(2/18=3)

 b3lyp opt

-1 1
    C    0.122687   -0.256498   -0.004016
    C   -0.663320    0.661257    0.337480
    H   -1.097893    1.106962    1.203933
    O    0.860932   -1.104941   -0.472218

