%NProcShared=2
#p b3lyp/6-311++G(3df,2p) freq IOp(2/17=3) IOp(2/18=3)

 b3lyp opt

-1 3
    C   -0.123652    0.082308    0.304716
    C    0.226807    1.351286   -0.220819
    H   -0.727326    0.107486    1.258611
    O    0.145434   -1.062077   -0.145567

