%NProcShared=2
#p b3lyp/6-311++G(3df,2p) freq IOp(2/17=3) IOp(2/18=3)

 b3lyp opt

-1 1
    C    0.490966    0.051054   -0.221012
    C   -1.901900   -1.082040   -0.196779
    C   -0.797764   -0.505105   -0.144789
    H    1.113607   -0.358250   -1.050134
    O    1.000140    0.912920    0.498680

