%NProcShared=2
#p b3lyp/6-311++G(3df,2p) freq IOp(2/17=3) IOp(2/18=3)

 b3lyp opt

-1 3
    C   -0.198707    0.004603   -0.405312
    C    0.672376    0.485623    0.387421
    C   -0.968726   -0.455707   -1.365346
    H   -1.955310   -0.889856   -1.425568
    O    1.492926    0.943696    1.168840

