%NProcShared=2
#p b3lyp/6-311++G(3df,2p) freq IOp(2/17=3) IOp(2/18=3)

 b3lyp opt

-1 1
    C   -0.638215   -0.314397    0.000000
    H   -0.381331   -1.678899    0.000000
    O    0.315116    0.430620    0.000000

