%NProcShared=2
#p b3lyp/6-311++G(3df,2p) freq IOp(2/17=3) IOp(2/18=3)

 b3lyp opt

-1 3
    C    1.039798   -0.211992    0.000000
    H   -0.442602    1.080819    0.000000
    O   -0.177139    0.069966    0.000000

