%NProcShared=2
#p b3lyp/6-311++G(3df,2p) freq IOp(2/17=3) IOp(2/18=3)

 b3lyp opt

-1 1
    C    0.736623    0.701537    0.000000
    H   -0.038245    1.680726    0.000000
    O    0.105089   -0.344746    0.000000

