%NProcShared=2
#p b3lyp/6-311++G(3df,2p) freq IOp(2/17=3) IOp(2/18=3)

 b3lyp opt

-1 1
    C   -0.942562    0.032624   -0.000000
    H    0.544008   -2.019788   -0.000000
    O   -0.220307    0.918403   -0.000000

