%NProcShared=2
#p b3lyp/6-311++G(3df,2p) opt(MaxCycles=200) Symmetry=None

 b3lyp opt

-1 1
    C   -0.302451    0.490156   -0.298535
    C    1.043720    0.978903   -0.459419
    H    0.270270   -0.798877    0.962450
    O   -0.549063   -0.482989    0.515645

