%NProcShared=2
#p b3lyp/6-311++G(3df,2p) opt(MaxCycles=200) Symmetry=None

 b3lyp opt

-1 3
    C    0.155602   -0.297545    0.010873
    C   -0.730405    0.751420    0.236382
    H   -1.040675    1.033882    1.247989
    O    0.837884   -1.080977   -0.430065

