%NProcShared=2
#p b3lyp/6-311++G(3df,2p) opt(MaxCycles=200) Symmetry=None

 b3lyp opt

-1 1
    C   -1.212459   -0.564792    0.312148
    C    0.879438    0.301220   -0.375705
    H    1.050516   -0.285549   -1.274933
    O   -0.175320    0.215708    0.421097

