%NProcShared=2
#p b3lyp/6-311++G(3df,2p) opt(MaxCycles=200) Symmetry=None

 b3lyp opt

-1 1
    C   -0.594907    0.280383   -0.288746
    C    0.698210    0.551991    0.238158
    H    1.422804   -0.063169    0.769460
    O   -1.161659   -0.771203   -0.232771

