%NProcShared=2
#p b3lyp/6-311++G(3df,2p) freq IOp(2/17=3) IOp(2/18=3)

 b3lyp opt

-1 2
    C    0.313360    0.839104    0.000000
    C    0.848642   -0.428762    0.000000
    O   -0.598982   -0.292995    0.000000

