%NProcShared=2
#p b3lyp/6-311++G(3df,2p) freq IOp(2/17=3) IOp(2/18=3)

 b3lyp opt

-1 2
    C    1.250513    0.621877    0.000000
    C    0.143954   -0.025401   -0.000000
    O   -0.896725   -0.633710   -0.000000

