%NProcShared=2
#p b3lyp/6-311++G(3df,2p) freq IOp(2/17=3) IOp(2/18=3)

 b3lyp opt

-1 4
    C   -0.300122   -0.007338   -0.890600
    C    0.280337   -0.179575    1.455276
    O    0.424530    0.240433    0.199111

