%NProcShared=2
#p b3lyp/6-311++G(3df,2p) freq IOp(2/17=3) IOp(2/18=3)

 b3lyp opt

-1 4
    C   -0.098828    0.315117    0.000000
    C   -1.498727   -0.212279   -0.000000
    O    1.035089   -0.126013    0.000000

