%NProcShared=2
#p b3lyp/6-311++G(3df,2p) freq IOp(2/17=3) IOp(2/18=3)

 b3lyp opt

-1 2
    C    1.060319   -0.776873   -0.094440
    C    1.205621    0.563237    0.019660
    C   -0.123886    0.023789    0.029173
    O   -1.328847    0.148888    0.094303

