%NProcShared=2
#p b3lyp/6-311++G(3df,2p) freq IOp(2/17=3) IOp(2/18=3)

 b3lyp opt

-1 2
    C    0.803090    0.066468   -0.021689
    C    2.051699    0.228301   -0.081899
    C   -0.503355   -0.054917    0.328707
    O   -1.598564   -0.281518   -0.127361

