%NProcShared=2
#p b3lyp/6-311++G(3df,2p) freq IOp(2/17=3) IOp(2/18=3)

 b3lyp opt

-1 2
    C   -1.987453   -1.794167    0.066262
    C   -1.014319   -0.979490    0.026347
    C    0.967051    0.680556   -0.055672
    C    0.005068   -0.126189   -0.015738
    O    1.889333    1.453113   -0.094159

