%NProcShared=2
#p b3lyp/6-311++G(3df,2p) freq IOp(2/17=3) IOp(2/18=3)

 b3lyp opt

-1 2
    C    0.040714    0.012234    0.006363
    C    0.348708   -0.587603    1.331087
    C   -0.216850    0.635264    1.332169
    C    0.016197    0.001416   -1.274112
    O   -0.006781   -0.008654   -2.473116

