%NProcShared=2
#p b3lyp/6-311++G(3df,2p) freq IOp(2/17=3) IOp(2/18=3)

 b3lyp opt

-1 2
    C    0.723080   -0.280741    0.071874
    C   -0.757456    0.180760   -0.095380
    C   -1.990562   -0.108679   -0.292625
    C    1.589617   -1.224554    0.111456
    O    0.309510    1.048935    0.128586

