%NProcShared=2
#p b3lyp/6-311++G(3df,2p) freq IOp(2/17=3) IOp(2/18=3)

 b3lyp opt

-1 4
    C   -1.028471    0.246308    0.021016
    C   -0.660533    1.565125   -0.272025
    C    0.281791   -0.385966    0.265065
    C    0.466239    0.798702   -0.593022
    O    0.793784   -1.470967    0.535238

