%NProcShared=2
#p b3lyp/6-311++G(3df,2p) freq IOp(2/17=3) IOp(2/18=3)

 b3lyp opt

-1 2
    C    1.432716    0.526428    0.414213
    C    0.622273   -0.208638   -0.327408
    H    0.891002   -1.092786   -0.911934
    H   -0.962556    0.802404    0.024512
    O   -0.793782    0.016097   -0.512532

