%NProcShared=2
#p b3lyp/6-311++G(3df,2p) freq IOp(2/17=3) IOp(2/18=3)

 b3lyp opt

-1 2
    C    1.085772    0.287912   -0.711745
    C   -0.019218    0.232859   -0.239446
    H    2.060049    0.319690   -1.126885
    H   -1.651518    1.042144    0.341347
    O   -1.209908    0.148948    0.272923

