%NProcShared=2
#p b3lyp/6-311++G(3df,2p) freq IOp(2/17=3) IOp(2/18=3)

 b3lyp opt

-1 2
C  1.419511000  0.473532000 -0.731716000
C  0.551699000 -0.064629000  0.100197000
H  0.815151022 -0.427732928  1.108545922
H -1.214923319 -0.683029931  0.650993659
O -0.859567419 -0.272076384 -0.146106599

