%NProcShared=2
#p b3lyp/6-311++G(3df,2p) freq IOp(2/17=3) IOp(2/18=3)

 b3lyp opt

-1 2
    C    1.240660   -0.581101    0.571756
    C    0.096121    0.151763    0.512767
    H    2.108840   -0.225353    1.105715
    H    1.306343   -1.557874    0.073302
    O   -1.028705    0.073546    0.026381

