%NProcShared=2
#p b3lyp/6-311++G(3df,2p) freq IOp(2/17=3) IOp(2/18=3)

 b3lyp opt

-1 2
    C    1.268379   -0.123481   -0.279064
    C    0.085859   -0.012899   -0.088541
    H    2.309368   -0.236551   -0.440452
    H   -1.555463    0.964943   -0.166231
    O   -1.191644    0.083021    0.127194

