%NProcShared=2
#p b3lyp/6-311++G(3df,2p) freq IOp(2/17=3) IOp(2/18=3)

 b3lyp opt

-1 4
    C    0.125271    0.457432    0.013213
    C    1.483581    0.113479   -0.120864
    H    2.067809   -0.752263   -0.394277
    H   -0.121752    1.478516    0.325935
    O   -0.775670   -0.363671   -0.213376

