%NProcShared=2
#p b3lyp/6-311++G(3df,2p) freq IOp(2/17=3) IOp(2/18=3)

 b3lyp opt

-1 4
    C    0.698529    0.287677   -0.599965
    C   -0.581199    0.054578   -0.016000
    H    1.520128   -0.415217   -0.477865
    H    0.887484    1.183149   -1.187556
    O   -0.983164   -0.856270    0.655134

