%NProcShared=2
#p b3lyp/6-311++G(3df,2p) freq IOp(2/17=3) IOp(2/18=3)

 b3lyp opt

-1 2
    C    0.544853   -0.307117   -0.263626
    H    0.406095   -1.415037   -0.200177
    H   -0.756697    1.098589   -0.372341
    O   -0.845680    0.148837   -0.317764

