%NProcShared=2
#p b3lyp/6-311++G(3df,2p) freq IOp(2/17=3) IOp(2/18=3)

 b3lyp opt

-1 4
    C    0.444253   -0.148858   -0.327884
    H    0.767031   -1.209950   -0.327012
    H    0.464871    0.245553   -1.364272
    O   -0.658362    0.076602    0.309617

