%NProcShared=2
#p b3lyp/6-311++G(3df,2p) freq IOp(2/17=3) IOp(2/18=3)

 b3lyp opt

-1 4
    C    1.098920   -0.288414    0.360599
    H   -0.286425    0.736594   -1.086076
    H   -0.614012    1.170294    0.391110
    O   -0.344942    0.384792   -0.157255

