%NProcShared=2
#p b3lyp/6-311++G(3df,2p) freq IOp(2/17=3) IOp(2/18=3)

 b3lyp opt

-1 2
    C    1.126529    0.115416    0.075777
    H   -0.794297   -0.924060   -0.399910
    H   -0.990092    0.637125   -0.418247
    O   -0.347775   -0.078321   -0.671420

