%NProcShared=2
#p b3lyp/6-311++G(3df,2p) freq IOp(2/17=3) IOp(2/18=3)

 b3lyp opt

-1 2
    C    1.094830   -0.277589    0.355733
    H   -0.283502    0.732612   -1.083885
    H   -0.612259    1.166662    0.392690
    O   -0.345528    0.381582   -0.156161

