%NProcShared=2
#p b3lyp/6-311++G(3df,2p) freq IOp(2/17=3) IOp(2/18=3)

 b3lyp opt

-1 2
    C    0.821182   -0.015753    0.336360
    H    0.977186    1.089616    0.402042
    H   -0.802170   -1.038967    0.374607
    O   -0.639061   -0.099186    0.428356

