%NProcShared=2
#p b3lyp/6-311++G(3df,2p) freq IOp(2/17=3) IOp(2/18=3)

 b3lyp opt

-1 2
    C    0.125016    0.226173   -0.419517
    H    0.677447   -0.473106   -1.072394
    H    0.366877    1.295133   -0.558130
    O   -0.734371   -0.174235    0.438035

