%NProcShared=2
#p b3lyp/6-311++G(3df,2p) freq IOp(2/17=3) IOp(2/18=3)

 b3lyp opt

-1 2
    H    0.662053    0.805457    0.000000
    H    1.204039   -0.617802    0.000000
    O    0.363516   -0.123065    0.000000

