%NProcShared=2
#p b3lyp/6-311++G(3df,2p) freq IOp(2/17=3) IOp(2/18=3)

 b3lyp opt

-1 2
    H   -0.718523    0.788348    0.000000
    H   -1.010103   -0.707324    0.000000
    O   -0.266865   -0.075966    0.000000

