%NProcShared=4
#p b3lyp/6-311++G(3df,2p) freq IOp(2/17=3) IOp(2/18=3)

 b3lyp opt

-1 3
    C   -0.607553    1.288454   -0.042703
    C    0.594693   -0.724212    0.274655
    H    0.520263   -0.438928    1.318672
    H   -1.268920    1.583540   -0.894271
    O   -0.029095    0.039373   -0.624313
    H    0.790591   -1.748195   -0.032050

