%NProcShared=4
#p b3lyp/6-311++G(3df,2p) freq IOp(2/17=3) IOp(2/18=3)

 b3lyp opt

-1 1
    C    0.779039   -0.720159   -0.007834
    C   -0.558826   -0.380445    0.750027
    H    1.607818   -0.239804    0.523423
    H    0.943564   -1.801552    0.052263
    H    0.755636   -0.391916   -1.063851
    O   -1.405369    0.183296    0.072964

