%NProcShared=4
#p b3lyp/6-311++G(3df,2p) freq IOp(2/17=3) IOp(2/18=3)

 b3lyp opt

-1 3
    C    0.756110   -0.760121   -0.030419
    C   -0.570049   -0.451759    0.585215
    H    1.525963   -0.152962    0.493267
    H    1.029700   -1.801561    0.113523
    H    0.794118   -0.508861   -1.089988
    O   -1.413981    0.324685    0.255394

