%NProcShared=4
#p b3lyp/6-311++G(3df,2p) freq IOp(2/17=3) IOp(2/18=3)

 b3lyp opt

-1 1
    C   -1.534868   -0.697298    0.227944
    C    0.992598    0.084488   -0.440644
    O    1.889378   -0.778475   -0.169424
    C   -0.371679   -0.064856   -0.494904
    C   -1.641787    0.557590   -0.124354
    H   -2.033997   -1.564210    0.625799
    H    1.322396    1.095427   -0.793001
    H   -2.298311    1.415870   -0.165440

