%NProcShared=2
#p b3lyp/6-311++G(3df,2p) freq IOp(2/17=3) IOp(2/18=3)

 b3lyp opt

-1 3
C  0.229988000  1.054302000 -0.138843000
C -0.737807000 -0.909335000  0.110511000
O -0.978623990  0.436705158 -0.024674384
C  0.595286100 -1.084863970  0.076685922
C  1.252862932  0.161297805 -0.083274277
H  0.202470074  2.124909390 -0.252849683
H -1.598315074 -1.545520847  0.212917993
H  2.306335452  0.378754902 -0.148293902

