%NProcShared=4
#p b3lyp/6-311++G(3df,2p) freq IOp(2/17=3) IOp(2/18=3)

 b3lyp opt

-1 1
    C    0.689679    0.941281   -0.000326
    H   -2.019842   -0.853604    0.000262
    C    1.097850   -0.357656   -0.000099
    C   -1.087532   -0.306656    0.000078
    C   -0.770273    1.013149   -0.000083
    H    1.371640    1.784220   -0.000563
    H    2.065275   -0.839221   -0.000111
    O    0.026063   -1.192457    0.000176

