%NProcShared=2
#p b3lyp/6-311++G(3df,2p) freq IOp(2/17=3) IOp(2/18=3)

 b3lyp opt

-1 3
C -1.631895311  0.657980438  0.182643500
C  0.814901163 -0.111933321  0.082798177
O  1.965615650 -0.153289434  0.461371702
C -0.432537565 -0.064500626  0.811470600
C -1.681720637 -0.700007373  0.185743630
H -1.593318938  1.384988733 -0.629881312
H -0.306905656 -0.066629103  1.898265605
H -1.696660594 -1.431585102 -0.623451397

