%NProcShared=4
#p b3lyp/6-311++G(3df,2p) freq IOp(2/17=3) IOp(2/18=3)

 b3lyp opt

-1 3
    C   -1.598719   -0.793912    0.069044
    C    0.931178   -0.003270   -0.452262
    O    1.728227    0.972079   -0.366049
    C   -0.379978   -0.066535    0.038096
    C   -1.486028    0.558658    0.631941
    H   -2.180705   -1.206028   -0.756658
    H    1.273642   -0.930885   -0.957525
    H   -1.963889    1.518427    0.459391

