%NProcShared=4
#p b3lyp/6-311++G(3df,2p) freq IOp(2/17=3) IOp(2/18=3)

 b3lyp opt

-1 3
    C    0.264953    0.643863   -0.476615
    C   -0.760798   -0.462607   -0.297193
    O   -0.916225    0.761956    0.494047
    C    0.371568   -1.303078    0.109312
    C    1.335799   -0.221966    0.014812
    H    0.254815    1.452047   -1.203743
    H   -1.628803   -0.715801   -0.897369
    H    2.176445    0.039699    0.649174

