%NProcShared=4
#p b3lyp/6-311++G(3df,2p) freq IOp(2/17=3) IOp(2/18=3)

 b3lyp opt

-1 3
    C   -0.117800   -0.207155   -0.420503
    H   -0.500519    0.547489    0.283911
    H   -0.463013    0.134221   -1.424190
    H   -0.602836   -1.184002   -0.269914
    O    1.237628   -0.266706   -0.485218

