%NProcShared=4
#p b3lyp/6-311++G(3df,2p) freq IOp(2/17=3) IOp(2/18=3)

 b3lyp opt

-1 1
    C   -0.940820    0.311986    0.625935
    H    1.151282   -0.672415   -1.462044
    H    0.573048    0.099892   -0.205480
    H   -0.707816    1.006429    1.480213
    O    1.458561   -0.080473   -0.769011

