%NProcShared=4
#p b3lyp/6-311++G(3df,2p) freq IOp(2/17=3) IOp(2/18=3)

 b3lyp opt

-1 1
    C   -0.388245   -0.222484   -0.947175
    H    1.266786    0.480061   -0.198144
    H   -1.299458    0.406117   -0.938805
    H   -0.734521   -1.231934   -0.653486
    O    0.438884    0.265715    0.219721

