%NProcShared=4
#p b3lyp/6-311++G(3df,2p) freq IOp(2/17=3) IOp(2/18=3)

 b3lyp opt

-1 2
    C   -0.166978    0.084504    0.241245
    C   -1.112500   -0.398721   -0.562080
    H   -1.938240   -0.954718   -0.135886
    H    1.462979    1.042457    0.576445
    H   -1.084522   -0.254100   -1.633557
    H   -0.206419   -0.067656    1.315843
    O    0.899811    0.789114   -0.188321

