%NProcShared=4
#p b3lyp/6-311++G(3df,2p) freq IOp(2/17=3) IOp(2/18=3)

 b3lyp opt

-1 2
    C    1.317170    0.272567   -0.058367
    C   -2.066596   -0.545679   -0.681362
    O    1.865970    0.150776    0.989822
    C   -1.161021   -0.035276    0.160127
    C   -0.044360    0.897427   -0.321207
    H   -0.040439    1.854184    0.224149
    H   -2.813892   -1.149133   -0.133022
    H   -1.093527   -0.217658    1.244441
    H   -0.177787    1.076443   -1.384579

