%NProcShared=2
#p b3lyp/6-311++G(3df,2p) freq IOp(2/17=3) IOp(2/18=3)

 b3lyp opt

-1 4
    C   -2.492937   -0.175260    0.000000
    C    1.214633   -0.368168    0.000000
    O    2.453192    0.064337   -0.000000
    C    0.067911    0.447624    0.000000
    C   -1.206242    0.040589    0.000000
    H   -3.062726   -0.282160   -0.922930
    H    1.153535   -1.457699    0.000000
    H    0.246679    1.522450   -0.000000
    H   -3.062726   -0.282161    0.922930

