%NProcShared=4
#p b3lyp/6-311++G(3df,2p) freq IOp(2/17=3) IOp(2/18=3)

 b3lyp opt

-1 2
    O   -2.951038    1.073795    0.156286
    C    1.771081   -0.045584   -0.030574
    C    0.370021   -0.020877   -0.494125
    C   -0.824202    0.040459   -0.146711
    C   -2.200429    0.056232    0.065399
    H    1.855201   -0.078143    1.073259
    H    2.320296    0.837742   -0.370383
    H    2.312949   -0.911794   -0.421076
    H   -2.653979   -0.951829    0.167926

