%NProcShared=2
#p b3lyp/6-311++G(3df,2p) freq IOp(2/17=3) IOp(2/18=3)

 b3lyp opt

-1 4
    C    3.172700    3.378065    0.932729
    C    2.900798    1.966106    0.510498
    O    3.721496    1.456998   -0.407346
    C    1.916730    1.115104    0.951994
    C    1.059859    0.322960    1.313186
    H    4.165855    3.478439    1.384780
    H    2.423777    3.676581    1.666886
    H    3.124723    4.068084    0.083133
    H    0.300375   -0.336644    1.653671

