%NProcShared=2
#p b3lyp/6-311++G(3df,2p) freq IOp(2/17=3) IOp(2/18=3)

 b3lyp opt

-1 4
    O   -2.860337    1.078113    0.311178
    C    1.814073   -0.013284   -0.009445
    C    0.363939   -0.040000   -0.012575
    C   -0.858537   -0.033147   -0.005986
    C   -2.231190   -0.055162   -0.007045
    H    2.218165    0.165077    0.994652
    H    2.207158    0.766859   -0.673273
    H    2.218343   -0.966658   -0.356862
    H   -2.871713   -0.901799   -0.240644

