%NProcShared=2
#p b3lyp/6-311++G(3df,2p) freq IOp(2/17=3) IOp(2/18=3)

 b3lyp opt

-1 3
    C   -0.293851   -0.378462    0.171881
    C   -0.118867    1.022342   -0.003637
    H   -0.927760    1.560069    0.510828
    O    0.331360   -1.352486   -0.201413

