%NProcShared=2
#p b3lyp/6-311++G(3df,2p) freq IOp(2/17=3) IOp(2/18=3)

 b3lyp opt

-1 3
    C   -1.060685    0.910206   -0.443062
    C   -0.262451    0.025017    0.032275
    H    1.569923   -0.374632    0.667509
    O    0.583702   -0.785301    0.500384

