%NProcShared=2
#p b3lyp/6-311++G(3df,2p) freq IOp(2/17=3) IOp(2/18=3)

 b3lyp opt

-1 3
    C   -0.276874   -0.120622    0.740944
    C   -0.500679    0.822218   -0.382755
    H   -0.715041   -1.103291    1.010894
    O    0.717711   -0.113472   -0.181471

