%NProcShared=2
#p b3lyp/6-311++G(3df,2p) freq IOp(2/17=3) IOp(2/18=3)

 b3lyp opt

-1 1
    C    0.389625   -0.343289    0.200307
    C    1.562349   -0.686866    0.404206
    H   -0.943306    0.634516   -0.717565
    O   -0.916417    0.007397    0.010718

