%NProcShared=2
#p b3lyp/6-311++G(3df,2p) freq IOp(2/17=3) IOp(2/18=3)

 b3lyp opt

-1 1
    C   -0.790881   -0.337715   -0.160438
    C   -0.039408    0.769541    0.294636
    H    0.177948    0.678843    1.371552
    O    0.480876   -0.615427   -0.428425

