%NProcShared=2
#p b3lyp/6-311++G(3df,2p) freq IOp(2/17=3) IOp(2/18=3)

 b3lyp opt

-1 1
    C    0.320304   -0.184456    0.109517
    C   -0.851746    0.185289    0.366136
    H   -1.710924   -0.090577    0.934952
    O    1.467482   -0.425423   -0.222993

