%NProcShared=2
#p b3lyp/6-311++G(3df,2p) freq IOp(2/17=3) IOp(2/18=3)

 b3lyp opt

-1 3
    C    0.344276   -0.373956    0.243806
    C    1.582326   -0.678273    0.390785
    H   -0.984895    0.686346   -0.771125
    O   -0.849456   -0.022359    0.034198

