%NProcShared=2
#p b3lyp/6-311++G(3df,2p) freq IOp(2/17=3) IOp(2/18=3)

 b3lyp opt

-1 1
    C   -1.022289   -0.110043    0.466848
    C    1.402974    0.194245   -0.260236
    H   -1.203675    0.597947    1.299854
    O    0.281719    0.128136    0.155247

