%NProcShared=2
#p b3lyp/6-311++G(3df,2p) freq IOp(2/17=3) IOp(2/18=3)

 b3lyp opt

-1 1
    C   -1.107236    0.509841    0.314397
    C    0.310777    0.298838    0.086930
    C   -0.639082   -0.326201   -0.689325
    H   -0.993355   -0.981399   -1.488937
    O    1.488596    0.528069    0.387931

