%NProcShared=2
#p b3lyp/6-311++G(3df,2p) freq IOp(2/17=3) IOp(2/18=3)

 b3lyp opt

-1 1
    C    0.156886    0.105736    0.852615
    C    0.037518   -0.908301   -0.064538
    C   -0.081917   -1.965169   -0.734971
    H    0.347874    1.962720    0.978848
    O    0.272064    1.340767    0.252243

