%NProcShared=2
#p b3lyp/6-311++G(3df,2p) freq IOp(2/17=3) IOp(2/18=3)

 b3lyp opt

-1 3
    C   -0.011980    0.494962   -0.373224
    C    0.054545   -0.794320   -0.107239
    C    0.084265   -2.070787    0.062356
    H    0.618596    1.372973    1.197125
    O    0.290938    1.645435    0.328638

