%NProcShared=2
#p b3lyp/6-311++G(3df,2p) freq IOp(2/17=3) IOp(2/18=3)

 b3lyp opt

-1 3
    C   -0.815678   -0.255606    0.000000
    H   -1.191729   -1.305517    0.000000
    O    0.382377    0.091519    0.000000

