%NProcShared=2
#p b3lyp/6-311++G(3df,2p) freq IOp(2/17=3) IOp(2/18=3)

 b3lyp opt

-1 1
    C   -0.556026   -0.643331    0.000000
    H    0.044843   -1.737510    0.000000
    O    0.241005    0.283249    0.000000

