%NProcShared=2
#p b3lyp/6-311++G(3df,2p) freq IOp(2/17=3) IOp(2/18=3)

 b3lyp opt

-1 3
    C   -0.849822   -0.124008    0.000000
    H   -1.477524   -1.045699    0.000000
    O    0.397162   -0.088103    0.000000

