%NProcShared=2
#p b3lyp/6-311++G(3df,2p) freq IOp(2/17=3) IOp(2/18=3)

 b3lyp opt

-1 1
    C   -0.850952   -0.136473    0.000000
    H   -1.135510   -1.352404    0.000000
    O    0.361432    0.019273    0.000000

