%NProcShared=2
#p b3lyp/6-311++G(3df,2p) freq IOp(2/17=3) IOp(2/18=3)

 b3lyp opt

-1 1
    C   -0.856730   -0.001226    0.000000
    H   -1.430253   -1.110126    0.000000
    O    0.356799   -0.146459    0.000000

