%NProcShared=2
#p b3lyp/6-311++G(3df,2p) freq IOp(2/17=3) IOp(2/18=3)

 b3lyp opt

-1 3
    C   -0.450837   -0.703954    0.000000
    H   -0.040154   -1.740946    0.000000
    O    0.220813    0.347307    0.000000

