%NProcShared=2
#p b3lyp/6-311++G(3df,2p) freq IOp(2/17=3) IOp(2/18=3)

 b3lyp opt

-1 3
    H   -0.858110    0.000000    0.000000
    O    0.141929    0.000000    0.000000

