%NProcShared=4
#p b3lyp/6-311++G(3df,2p) freq

 b3lyp opt

0 1
S -0.448274548 -0.611488242  0.000000000
C  2.227314215  0.454546571 -0.000000000
C  1.009764912 -0.031003925 -0.000000000

