%NProcShared=4
#p b3lyp/6-311++G(3df,2p) freq

 b3lyp opt

2 3
    S   -0.425018   -0.602362    0.000000
    C    2.215263    0.450186   -0.000000
    C    0.998502   -0.035624   -0.000000

