%NProcShared=4
#p b3lyp/6-311++G(3df,2p) freq

 b3lyp opt

2 1
S -0.025605000 -0.173927000  0.000000000
C  0.499010975  1.503187115 -0.000000000
C  1.520572025 -1.008954115 -0.000000000

