%NProcShared=4
#p b3lyp/6-311++G(3df,2p) freq

 b3lyp opt

0 1
S  0.194880000 -0.126990000  0.000000000
C  1.539174265  0.965612914 -0.000000000
C  1.901933735 -0.421736914 -0.000000000

