%NProcShared=4
#p b3lyp/6-311++G(3df,2p) freq

 b3lyp opt

0 3
S -0.074402000 -0.193685000  0.000000000
C  0.589793151  1.350130149 -0.000000000
C  1.478586849 -0.836138149 -0.000000000

