%NProcShared=4
#p b3lyp/6-311++G(3df,2p) freq

 b3lyp opt

0 3
S  0.957481660 -0.026514894 -0.000000000
C  1.773538453  1.392279193 -0.000000000
C  0.141678454 -1.445454808  0.000000000

