%NProcShared=4
#p b3lyp/6-311++G(3df,2p) freq

 b3lyp opt

1 4
S  0.957494404 -0.026521476  0.000000000
C  1.763504461  1.374822635  0.000000000
C  0.151720462 -1.428001366 -0.000000000

