%NProcShared=4
#p b3lyp/6-311++G(3df,2p) freq

 b3lyp opt

1 4
    S   -0.424861   -0.602318    0.000000
    C    2.196174    0.442536   -0.000000
    C    1.017434   -0.028017   -0.000000

