%NProcShared=4
#p b3lyp/6-311++G(3df,2p) freq

 b3lyp opt

1 2
S -0.435977886 -0.606558799 -0.000000000
C  2.251960878  0.464337056  0.000000000
C  0.972834818 -0.045753592  0.000000000

