%NProcShared=4
#p b3lyp/6-311++G(3df,2p) freq

 b3lyp opt

1 4
S  0.126131000 -0.144993000  0.000000000
C  1.590877046  0.908286305 -0.000000000
C  1.918980954 -0.346406305  0.000000000

