%NProcShared=4
#p b3lyp/6-311++G(3df,2p) freq

 b3lyp opt

2 1
S  0.229586000 -0.117898000  0.000000000
C  1.537670611  0.900496632 -0.000000000
C  1.868732389 -0.365712632 -0.000000000

