%NProcShared=4
#p b3lyp/6-311++G(3df,2p) freq

 b3lyp opt

2 3
S  0.197340000 -0.126356000  0.000000000
C  1.546257983  0.933477611 -0.000000000
C  1.892390017 -0.390235611  0.000000000

