%NProcShared=4
#p b3lyp/6-311++G(3df,2p) freq

 b3lyp opt

2 1
S -0.449984369 -0.612019315 -0.000000000
C  2.300663835  0.483652537  0.000000000
C  0.938169148 -0.059686031  0.000000000

