%NProcShared=4
#p b3lyp/6-311++G(3df,2p) freq

 b3lyp opt

0 3
    S   -0.445338   -0.610425   -0.000000
    C    2.224319    0.453833    0.000000
    C    1.009767   -0.031208    0.000000

