%NProcShared=4
#p b3lyp/6-311++G(3df,2p) freq

 b3lyp opt

1 4
S -1.025604000 -0.049625000 -0.379366000
S  1.916507000 -1.095405000  0.103343000
C  0.524299624 -0.569033070 -0.146483764
C -0.845370624  1.322491070 -1.325618236

