%NProcShared=4
#p b3lyp/6-311++G(3df,2p) freq

 b3lyp opt

2 3
S -1.148437098  0.407296595  0.034999052
S  0.895230353  0.729623303 -0.238478228
C  0.312905276 -2.176568705 -0.052691754
C  0.090094380 -0.784964023 -0.077556775

