%NProcShared=4
#p b3lyp/6-311++G(3df,2p) freq

 b3lyp opt

1 2
S -1.106526011  0.431292114  0.029032877
S  0.847940614  0.739580972 -0.232510508
C  0.308291791 -2.148162373 -0.053921928
C  0.100059933 -0.847333856 -0.076676390

