%NProcShared=4
#p b3lyp/6-311++G(3df,2p) freq

 b3lyp opt

1 2
S -1.646846630 -1.051506373 -0.468271703
S  2.334688086  0.597615624  0.181473772
C -0.254848619 -0.474936076 -0.241082179
C  0.942671068  0.021081074 -0.045690004

