%NProcShared=4
#p b3lyp/6-311++G(3df,2p) freq

 b3lyp opt

1 2
S -1.158862823  0.202686305 -0.037116935
S  0.917627524  0.931807649 -0.003367394
C  0.757804021 -1.915095722 -0.438175979
C  0.305934778 -0.638152822 -0.223186478

