%NProcShared=4
#p b3lyp/6-311++G(3df,2p) freq

 b3lyp opt

2 3
S -1.075467000 -0.011889000 -0.401094000
S  1.924858000 -1.123261000  0.121716000
C  0.582313166 -0.559684845 -0.157266820
C -0.861872166  1.303263845 -1.311480180

