%NProcShared=4
#p b3lyp/6-311++G(3df,2p) freq

 b3lyp opt

0 3
S -2.110760205 -0.281409604 -0.243494534
S  2.280801541 -0.591618830  0.089083173
C  0.717528974 -0.481101742 -0.029394057
C -0.547460539 -0.391741432 -0.125202315

