%NProcShared=4
#p b3lyp/6-311++G(3df,2p) freq

 b3lyp opt

1 4
S -0.594079000  0.260472000  0.652718000
S  1.377084000  0.420888000  0.247741000
C -0.910103986 -1.064594331 -0.282340251
C -1.134418014 -2.041955669 -0.974388749

