%NProcShared=4
#p b3lyp/6-311++G(3df,2p) freq

 b3lyp opt

2 1
S -1.756407000 -0.134076000  0.083872000
S  1.434055000 -0.006630000  0.430731000
C  1.142809508  1.525474559 -0.209329465
C -0.278166508 -0.023179559  0.224149465

