%NProcShared=4
#p b3lyp/6-311++G(3df,2p) freq

 b3lyp opt

2 1
S -2.074190742 -0.283788398 -0.240863621
S  2.244282449 -0.588934737  0.086080756
C  0.766904151 -0.484595609 -0.025712608
C -0.596827368 -0.388201032 -0.128941752

