%NProcShared=4
#p b3lyp/6-311++G(3df,2p) freq

 b3lyp opt

0 1
S -0.428796000  0.151166000  0.524339000
S  1.425196000  0.655576000  0.415465000
C -0.839267439 -1.130904058 -0.352373152
C -1.418650561 -2.101029942 -0.943701848

