%NProcShared=4
#p b3lyp/6-311++G(3df,2p) freq

 b3lyp opt

0 3
S -1.009771000 -0.645569000  0.034279000
S  2.136784000 -0.773450000  0.346665000
C  0.598316184 -0.754339190  0.237566267
C -1.310892184  0.546334190 -1.181352267

