%NProcShared=4
#p b3lyp/6-311++G(3df,2p) freq

 b3lyp opt

0 1
S -1.158061691  0.393558793  0.037131431
S  0.908731414  0.719580926 -0.239440145
C  0.302229823 -2.110351144 -0.054771101
C  0.096869917 -0.827415773 -0.077083993

