%NProcShared=4
#p b3lyp/6-311++G(3df,2p) freq

 b3lyp opt

2 3
S -0.530722000  0.204057000  0.592358000
S  1.409804000  0.541517000  0.331800000
C -0.851936493 -1.100728196 -0.325746650
C -1.288663507 -2.070036804 -0.954681350

