%NProcShared=4
#p b3lyp/6-311++G(3df,2p) freq

 b3lyp opt

1 4
S -2.142433590 -0.278981547 -0.246035715
S  2.312495343 -0.593893247  0.091494554
C  0.704563095 -0.480231762 -0.030347475
C -0.534491771 -0.392587787 -0.124268430

