%NProcShared=4
#p b3lyp/6-311++G(3df,2p) freq

 b3lyp opt

1 2
S -1.137568000 -0.095362000 -0.339613000
S  1.898151000 -0.954574000  0.009052000
C  0.447946244 -0.588980953 -0.127027500
C -0.638696244  1.247344953 -1.290537500

