%NProcShared=4
#p b3lyp/6-311++G(3df,2p) freq

 b3lyp opt

0 1
S -1.677253000 -0.266326000  0.269568000
S  1.520720000  0.050338000  0.044513000
C  0.593168117  1.516441388 -0.164326795
C -0.248831117  0.409984612  0.074935795

