%NProcShared=4
#p b3lyp/6-311++G(3df,2p) freq

 b3lyp opt

2 1
S -1.172225000  0.609370000  0.030890000
S  0.782569000  0.629742000 -0.219317000
C  0.420519966 -2.206624940 -0.066729301
C  0.118866034 -0.857117060 -0.078854699

