%NProcShared=4
#p b3lyp/6-311++G(3df,2p) freq

 b3lyp opt

0 1
    S    0.586038    0.000000    0.000000
    C    2.117914    0.000000    0.000000

