%NProcShared=4
#p b3lyp/6-311++G(3df,2p) freq

 b3lyp opt

0 1
    S    1.068620    0.000000    0.000000
    C    2.600497    0.000000    0.000000

