%NProcShared=4
#p b3lyp/6-311++G(3df,2p) freq

 b3lyp opt

1 4
    S    0.517729    0.000000    0.000000
    C    2.186223    0.000000    0.000000

