%NProcShared=4
#p b3lyp/6-311++G(3df,2p) freq

 b3lyp opt

0 3
    S    0.479161    0.000000    0.000000
    C    2.046733    0.000000    0.000000

