%NProcShared=4
#p b3lyp/6-311++G(3df,2p) freq

 b3lyp opt

0 1
S -1.653634490 -0.188599691  0.000000000
S  1.453257510 -0.214148691 -0.000000000
C -0.100189387 -0.201483317 -0.000000000

