%NProcShared=4
#p b3lyp/6-311++G(3df,2p) freq

 b3lyp opt

2 3
S  1.113123954 -0.201037717  0.000000000
S -1.103468954 -0.056848283 -0.000000000
C  0.084642000  1.098028000 -0.000000000

