%NProcShared=4
#p b3lyp/6-311++G(3df,2p) freq

 b3lyp opt

1 2
S  1.007064646 -0.268002076  0.000000000
S -1.006972646 -0.137003924 -0.000000000
C  0.094205000  1.245149000 -0.000000000

