%NProcShared=4
#p b3lyp/6-311++G(3df,2p) freq

 b3lyp opt

1 4
S -1.362115655  0.043546905 -0.000000000
S  1.445884655 -0.149327905  0.000000000
C -0.014735000 -0.877195000  0.000000000

