%NProcShared=4
#p b3lyp/6-311++G(3df,2p) freq

 b3lyp opt

0 3
S  1.239675335 -0.204974499  0.000000000
S -1.229502335 -0.044207501 -0.000000000
C  0.084124000  1.089325000  0.000000000

