%NProcShared=4
#p b3lyp/6-311++G(3df,2p) freq

 b3lyp opt

2 3
S -1.666841402 -0.188485888  0.000000000
S  1.466463598 -0.214250888 -0.000000000
C -0.100189855 -0.201484263  0.000000000

