%NProcShared=4
#p b3lyp/6-311++G(3df,2p) freq

 b3lyp opt

1 2
S -1.652526412 -0.188610336  0.000000000
S  1.452148588 -0.214139336 -0.000000000
C -0.100189803 -0.201483210  0.000000000

