%NProcShared=4
#p b3lyp/6-311++G(3df,2p) freq

 b3lyp opt

0 1
S  1.064593026 -0.242957249  0.000000000
S -1.060825026 -0.104567751 -0.000000000
C  0.090529000  1.187668000  0.000000000

