%NProcShared=4
#p b3lyp/6-311++G(3df,2p) freq

 b3lyp opt

1 4
S  1.031427721 -0.243846838  0.000000000
S -1.028035721 -0.109803162  0.000000000
C  0.090905000  1.193793000 -0.000000000

