%NProcShared=4
#p b3lyp/6-311++G(3df,2p) freq

 b3lyp opt

0 3
S  0.989645591 -0.089503899  0.000000000
S -0.974836591 -0.164470101 -0.000000000
C -0.053575000  1.470975000 -0.000000000

