%NProcShared=4
#p b3lyp/6-311++G(3df,2p) freq

 b3lyp opt

0 3
S -1.407908763  0.015175900 -0.000000000
S  1.487369763 -0.183718900  0.000000000
C -0.010429000 -0.814435000  0.000000000

