%NProcShared=4
#p b3lyp/6-311++G(3df,2p) freq

 b3lyp opt

2 1
S  0.961610150 -0.309016117  0.000000000
S -0.967241150 -0.183501883  0.000000000
C  0.099928000  1.332661000 -0.000000000

