%NProcShared=4
#p b3lyp/6-311++G(3df,2p) freq

 b3lyp opt

2 1
S -1.662007406 -0.188527645  0.000000000
S  1.461629594 -0.214213645 -0.000000000
C -0.100189837 -0.201483894  0.000000000

