%NProcShared=4
#p b3lyp/6-311++G(3df,2p) freq

 b3lyp opt

0 1
    S   -0.712428   -0.783661   -1.461994
    C   -1.729858    0.224069   -0.371561
    C   -1.282718   -0.621404    0.503824
    H   -2.348647    1.067298   -0.614571
    H    0.447539   -0.087972   -1.447948

