%NProcShared=4
#p b3lyp/6-311++G(3df,2p) freq

 b3lyp opt

0 1
S  0.901802453  0.034919374  0.583792864
C -0.682616398 -0.031049776  0.004749337
C -1.795091000 -0.177055000 -0.428239000
H  0.900695521  1.336119901  0.928287828
H -2.779245257 -0.295447548 -0.808428528

