%NProcShared=4
#p b3lyp/6-311++G(3df,2p) freq

 b3lyp opt

0 3
S  0.582567000  0.549974000 -0.073376000
S -1.447309000 -0.383459000 -0.130848000
C  1.874690976 -0.584950979  0.037641564
C  2.891116445  0.280526498  0.049283473
H  1.742297488 -1.661479861  0.077614179
H -0.964641539 -1.634939357 -0.053754617

