%NProcShared=4
#p b3lyp/6-311++G(3df,2p) freq

 b3lyp opt

1 2
    S    0.873587    0.024180    0.570915
    C   -0.657254   -0.017170    0.017366
    C   -1.788104   -0.176700   -0.425699
    H    0.898009    1.336980    0.929495
    H   -2.781289   -0.300249   -0.810232

