%NProcShared=4
#p b3lyp/6-311++G(3df,2p) freq

 b3lyp opt

1 2
    S   -0.324932   -0.835219   -1.282530
    C   -1.447457   -0.034689   -0.306196
    C   -2.140625   -0.578218    0.719192
    H   -1.696130    1.026393   -0.449776
    H   -0.016970    0.220064   -2.072941

