%NProcShared=4
#p b3lyp/6-311++G(3df,2p) freq

 b3lyp opt

0 3
S  0.918173000 -0.439498000 -1.240061000
C  0.124818000  0.001964000  0.088294000
C -1.144125145  0.367551967  0.420049417
H -1.406032666  0.623700600  1.439914368
H -1.941580595  0.417023793 -0.320676375

