%NProcShared=4
#p b3lyp/6-311++G(3df,2p) freq

 b3lyp opt

0 3
S -0.185344999  0.451964928 -0.472756800
C -1.472081605 -0.642766763  0.009863456
C -0.254519852 -1.298971315 -0.344351215
H -2.471001098 -0.645807546 -0.412765262
H  0.018217534 -1.987371202 -1.136932028

