%NProcShared=4
#p b3lyp/6-311++G(3df,2p) freq

 b3lyp opt

1 4
S -0.614955000  1.099023000 -0.194897000
C -1.091691000 -0.489803000 -0.393492000
C -0.232615584 -1.498685179 -0.650767170
H -2.173371878 -0.666913022 -0.299504915
H -0.252064118 -2.566599833 -0.818233049

