%NProcShared=4
#p b3lyp/6-311++G(3df,2p) freq

 b3lyp opt

0 1
    S    0.306505    0.075531    0.488732
    S   -1.226761    0.502755   -0.654512
    C    1.318780   -1.290244   -0.318059
    C    2.522411   -0.832455   -0.272183
    H    0.776686   -2.140148   -0.696682
    H   -0.144738   -0.815149    1.411152

