%NProcShared=4
#p b3lyp/6-311++G(3df,2p) freq

 b3lyp opt

2 1
S  1.174354818 -0.454145597 -1.015064502
C -0.059309308 -0.025299576 -0.291954498
C -1.215760873  0.376705834  0.385897503
H -1.181664505  0.572366757  1.473171840
H -2.166572495  0.499713243 -0.164045840

