%NProcShared=4
#p b3lyp/6-311++G(3df,2p) freq

 b3lyp opt

1 4
S -0.224675000 -0.120772000  0.245508000
C  0.210304000  1.393870000 -0.125803000
C -1.801138234 -0.349114575 -0.143174045
H -0.090736214  2.352229038 -0.530339251
H -2.474306982 -1.196370134 -0.061978213

