%NProcShared=4
#p b3lyp/6-311++G(3df,2p) freq

 b3lyp opt

0 1
    S   -1.419657   -0.565286    0.289414
    S    0.571183   -0.991884    1.077345
    C    1.757270   -0.678248    0.018096
    C    2.763747   -0.283993   -0.624916
    H   -1.482015    0.595766    0.962678
    H    0.343307   -2.325184    0.938772

