%NProcShared=4
#p b3lyp/6-311++G(3df,2p) freq

 b3lyp opt

1 2
S  0.021440000  0.840066000 -0.629639000
C  0.784724000  0.447213000  0.817312000
C -1.165063554 -0.332337859 -0.806975187
H -1.765446469 -0.231635393 -1.703066808
H -1.320336879 -1.125021304 -0.087379948

