%NProcShared=4
#p b3lyp/6-311++G(3df,2p) freq

 b3lyp opt

1 4
S  0.853916000 -0.424567000 -1.303667000
C  0.150004000  0.009310000  0.178462000
C -1.123325557  0.361485878  0.427652207
H -1.441024763  0.618194240  1.438793115
H -1.888072549  0.407321224 -0.353881597

