%NProcShared=4
#p b3lyp/6-311++G(3df,2p) freq

 b3lyp opt

2 3
    S    0.488363   -0.526785   -0.406416
    S   -1.372755    0.653699   -0.640982
    C    1.437134    0.567362    0.327298
    C    2.316480    1.246383    0.885397
    H    3.078315    1.846181    1.371122
    H   -2.037092   -0.373149   -1.266730

