%NProcShared=4
#p b3lyp/6-311++G(3df,2p) freq

 b3lyp opt

1 4
S -0.041808053  0.017592973  0.950956286
C  0.096568030  0.644411950 -0.730845719
C -1.229824213  0.222730255 -0.575372598
H -2.046166023  0.921124455 -0.337802264
H -1.580831086 -0.759392073 -0.925855092

