%NProcShared=4
#p b3lyp/6-311++G(3df,2p) freq

 b3lyp opt

0 3
S -0.424500000 -0.062184000  0.337093000
C  2.077604000  0.118461000 -0.557644000
C  0.960391928  0.765450755 -0.216685047
H  3.064558507  0.356968462 -0.924030547
H  0.922576354  1.854575480 -0.291016891

