%NProcShared=4
#p b3lyp/6-311++G(3df,2p) freq

 b3lyp opt

0 3
S  0.015018000  0.728170000 -0.572424000
C  0.798194000  0.498792000  0.872239000
C -1.240202657 -0.414220391 -0.743884641
H -1.836921014 -0.380921136 -1.643745076
H -1.424426105 -1.144725168  0.030078769

