%NProcShared=4
#p b3lyp/6-311++G(3df,2p) freq

 b3lyp opt

2 3
S  0.866888824  0.204429060  1.125345245
C -0.413095868  0.207871754  0.110445575
C -1.427482663  0.210600087 -0.693861562
H -2.159937605  1.060140862 -0.767606208
H -1.669072395 -0.636320862 -1.392436792

