%NProcShared=4
#p b3lyp/6-311++G(3df,2p) freq

 b3lyp opt

2 3
S -0.283678000 -0.870567000 -1.317639000
C -1.433690000 -0.090128000 -0.299818000
C -2.160737673 -0.486443690  0.705201702
H -1.731356019  1.002642460 -0.398338007
H -0.015907902  0.243087818 -2.081016421

