%NProcShared=4
#p b3lyp/6-311++G(3df,2p) freq

 b3lyp opt

1 2
    S    0.018774    0.259398   -0.102609
    S   -1.526578   -0.702437    0.752456
    C    1.374703   -0.707179   -0.269929
    C    2.335734   -1.385971   -0.509267
    H    3.197058   -1.986978   -0.708255
    H    0.438806    1.127855    0.854608

