%NProcShared=4
#p b3lyp/6-311++G(3df,2p) freq

 b3lyp opt

0 1
    S    0.403052    0.124512   -0.283559
    S   -1.317142   -0.732747   -0.027420
    C    1.843685   -1.061272   -0.369786
    C    2.297643   -0.918263    0.828053
    H    1.983817   -1.591887   -1.293696
    H    0.877526    0.586488    0.928090

