%NProcShared=4
#p b3lyp/6-311++G(3df,2p) freq

 b3lyp opt

0 1
S -0.556674541 -0.510779642  0.189614863
C  0.737635936  0.281537688 -0.153717960
C  1.824185263  0.943610403 -0.440945080
H  2.796200000  0.476654000 -0.354014000
H  1.774361936  1.972467443 -0.771648123

