%NProcShared=4
#p b3lyp/6-311++G(3df,2p) freq

 b3lyp opt

2 1
S  0.076517000  0.933145000 -0.777623000
C  0.316232000  0.121629000  0.718010000
C -1.078479870 -0.305043045 -0.667095697
H -1.794566446 -0.431264453 -1.510203224
H -1.208324115 -1.031089002  0.179373589

