%NProcShared=4
#p b3lyp/6-311++G(3df,2p) freq

 b3lyp opt

0 1
S  0.185784549 -0.154649589  0.791261827
C  0.181326998  0.594769661 -0.736106753
C -1.197856434  0.491487264 -0.201310083
H -1.680915417  1.390662723  0.165839942
H -1.869085923 -0.242151964 -0.634768370

