%NProcShared=4
#p b3lyp/6-311++G(3df,2p) freq

 b3lyp opt

0 3
S -0.355586000 -0.807509000 -1.258992000
C -1.496595000  0.020920000 -0.272191000
C -2.123081195 -0.685873743  0.743392467
H -1.657453414  1.073785074 -0.514839761
H  0.006815750  0.197083841 -2.089437838

