%NProcShared=4
#p b3lyp/6-311++G(3df,2p) freq

 b3lyp opt

2 3
    S    0.907791    0.006065    0.578257
    C   -0.622221   -0.019387    0.029130
    C   -1.805269   -0.181801   -0.433201
    H    0.888850    1.362617    0.933084
    H   -2.824201   -0.300450   -0.825423

