%NProcShared=4
#p b3lyp/6-311++G(3df,2p) freq

 b3lyp opt

0 1
S -0.042738000  0.558383000 -0.414413000
C  0.971829000  0.711910000  0.818168000
C -1.282848359 -0.461119543 -0.737997335
H -1.771376263 -0.289885121 -1.680154834
H -1.563482425 -1.231916367 -0.043143141

