%NProcShared=4
#p b3lyp/6-311++G(3df,2p) freq

 b3lyp opt

2 1
S  0.435888000  0.561950000 -0.082827000
S -1.317415000 -0.359897000 -0.128146000
C  1.745459236 -0.476711213  0.027645191
C  3.008399590  0.084698272  0.064841677
H  1.722494339 -1.578672697  0.075401450
H -0.916100255 -1.665703009 -0.050483865

