%NProcShared=4
#p b3lyp/6-311++G(3df,2p) freq

 b3lyp opt

1 2
S -0.573457937 -0.464875630  0.176191333
C  0.706823778  0.279144129 -0.150835858
C  1.837563721  0.936259550 -0.439665030
H  2.801583810  0.442186622 -0.342746701
H  1.803201190  1.970591378 -0.774049299

