%NProcShared=4
#p b3lyp/6-311++G(3df,2p) freq

 b3lyp opt

0 3
S  0.017204523  0.042071750  0.928511178
C  0.091073140  0.620633763 -0.667713908
C -1.259926085  0.214875054 -0.576542995
H -2.057319801  0.923171260 -0.358326549
H -1.593201591 -0.753896053 -0.944712316

