%NProcShared=4
#p b3lyp/6-311++G(3df,2p) freq

 b3lyp opt

0 3
    S   -1.797122    0.633458    0.392309
    S    0.834780    0.106765   -1.127141
    C   -0.332371    1.043441   -0.304825
    H   -1.418866    0.321146    1.664770
    H    1.720090    1.097863   -1.336774

