%NProcShared=4
#p b3lyp/6-311++G(3df,2p) freq

 b3lyp opt

0 1
    S   -0.500253    0.841497    0.781190
    S    0.832025   -0.382930   -0.580670
    C    0.581354   -1.888755   -0.827527
    H   -0.183485   -2.551783   -0.441566
    H   -1.302769   -0.192474    1.081420

