%NProcShared=4
#p b3lyp/6-311++G(3df,2p) freq

 b3lyp opt

2 1
S  0.818482864  0.084643140  0.154915256
C -0.416908637  0.930487293 -0.174670349
H -1.105406729  1.467996112  0.582410477
H -0.838232271  1.152847888 -1.227836477

