%NProcShared=4
#p b3lyp/6-311++G(3df,2p) freq

 b3lyp opt

1 2
S  0.802453985  0.096750320  0.150435712
C -0.477350959  0.971817481 -0.190784233
H -1.068301886  1.442685939  0.600583162
H -0.798806114  1.124807061 -1.225416162

