%NProcShared=4
#p b3lyp/6-311++G(3df,2p) freq

 b3lyp opt

1 2
S  0.024644959  0.332347214 -0.160067483
C -1.489824665  0.782679823 -0.171542175
H -2.297563000  0.916657000 -0.884578000
H  0.261799279  0.463298274  1.182721556

