%NProcShared=4
#p b3lyp/6-311++G(3df,2p) freq

 b3lyp opt

0 1
S -1.319371698 -0.057431371  0.746394251
S  0.751589913  0.250976966 -1.147782923
C -0.190946462  0.988708566  0.046148874
H -1.862085891  0.825873797  1.607147653
H  1.498405557  1.326319374 -1.466480638

