%NProcShared=4
#p b3lyp/6-311++G(3df,2p) freq

 b3lyp opt

0 3
S -0.229167243 -0.398589033  0.075977661
C -1.848006951  0.374469275  0.052688841
H -0.269506704 -1.486770008 -0.753742373
H -0.170008089 -1.220482230  1.169226127

