%NProcShared=4
#p b3lyp/6-311++G(3df,2p) freq

 b3lyp opt

1 4
    S   -0.930100    1.359409    0.033106
    S    1.856666    0.723357   -0.486239
    C    0.202819    0.335777   -0.797196
    H   -1.663364    0.404807    0.658113
    H   -0.006052   -0.731325   -0.841391

