%NProcShared=4
#p b3lyp/6-311++G(3df,2p) freq

 b3lyp opt

1 2
S  0.022608000  0.030236000  0.107292000
C -1.363582000 -0.582837000 -0.305190000
H -2.094903710 -1.382804971 -0.282336760
H  0.526820710 -0.991006029  0.885210760

