%NProcShared=4
#p b3lyp/6-311++G(3df,2p) freq

 b3lyp opt

0 1
    S   -0.833986   -0.293185    0.145917
    S    0.978405    0.126133   -0.699085
    C    0.459332   -1.602714   -0.122684
    H    0.057769   -2.066597   -1.037995
    H   -0.582039   -0.028093    1.448562

