%NProcShared=4
#p b3lyp/6-311++G(3df,2p) freq

 b3lyp opt

2 1
S -1.337104528 -0.045958446  0.547349151
S  0.602390377 -0.767583839  0.016169274
C  0.039944583  1.044761206 -0.203016514
H -0.995609262  0.248400293  1.856745353
H  0.238677093 -1.141122641 -1.266782756

