%NProcShared=4
#p b3lyp/6-311++G(3df,2p) freq

 b3lyp opt

2 3
S  0.117829000  0.079437000  0.131961000
C -1.446800000 -0.552423000 -0.363858000
H -2.120933811 -1.438419813 -0.267723579
H  0.540846811 -1.015007187  0.904597579

