%NProcShared=4
#p b3lyp/6-311++G(3df,2p) freq

 b3lyp opt

1 4
S  0.887458951  0.008649591  0.178239649
C -0.476917110  1.131629885 -0.218539660
H -1.113627554  1.409679231  0.617766577
H -0.838890554  1.086100231 -1.242757423

