%NProcShared=4
#p b3lyp/6-311++G(3df,2p) freq

 b3lyp opt

1 2
S -1.434872290 -0.066288522  0.823759310
S  0.867882063  0.260440973 -1.224149235
C -0.234756406  0.567485846 -0.070340545
H -1.727096353  1.064078579  1.521533978
H  1.406553477  1.508700832 -1.265314847

