%NProcShared=4
#p b3lyp/6-311++G(3df,2p) freq

 b3lyp opt

1 4
    S   -1.013769    0.192381    0.438527
    S    0.840756   -0.640264    0.102312
    C    0.506478   -1.629295   -1.261815
    H    0.272496   -2.690463   -1.293017
    H   -0.664644    0.739312    1.630860

