%NProcShared=4
#p b3lyp/6-311++G(3df,2p) freq

 b3lyp opt

2 1
S  0.142641000 -0.319816000  0.188186000
C -1.187551000  0.439166000  0.079217000
H -2.152513644  0.997069252 -0.000692421
H  0.479938644  1.110274748  0.025054421

