%NProcShared=4
#p b3lyp/6-311++G(3df,2p) freq

 b3lyp opt

0 1
S -0.103116733  0.368777895 -0.170429135
C -1.663875322  0.864308269  0.024759658
H -2.075039000  0.833128000 -0.997937000
H  0.341128317  0.428901140  1.110121410

