%NProcShared=4
#p b3lyp/6-311++G(3df,2p) freq

 b3lyp opt

1 4
    S   -1.471832   -0.046210    0.610613
    S    0.911669    1.617977    0.481745
    C   -0.250503    0.683138   -0.388749
    H   -1.978676    1.076562    1.178068
    H    0.181413   -0.014188   -1.106762

