%NProcShared=4
#p b3lyp/6-311++G(3df,2p) freq

 b3lyp opt

1 2
    S   -1.717865    0.998310    0.473933
    S    1.163717    0.261212   -0.629359
    C   -0.310502    0.840707   -0.298038
    H   -1.554855    0.055526    1.452486
    H    1.426016    1.046919   -1.710682

