%NProcShared=4
#p b3lyp/6-311++G(3df,2p) freq

 b3lyp opt

1 2
S -0.838661000 -0.139228000  0.638830000
S  1.944639000  0.437263000 -0.288084000
C  0.338414133  0.756982047 -0.165475608
H -1.868823297  0.675917208  0.331901216
H  0.021953707  1.669045222 -0.677913925

