%NProcShared=4
#p b3lyp/6-311++G(3df,2p) freq

 b3lyp opt

1 4
    S    0.107101   -0.111867    0.289263
    C   -1.450226    0.458763   -0.359397
    H   -2.244076    0.869529    0.263581
    H    0.869717    1.010269    0.098319

