%NProcShared=4
#p b3lyp/6-311++G(3df,2p) freq

 b3lyp opt

2 1
S -0.910548731 -1.233053964  0.231217608
C -1.526270462  0.455897510  0.016815642
H -0.095966139 -1.132922598 -0.918453093
H  0.016098075 -0.821287664  1.214623944

