%NProcShared=4
#p b3lyp/6-311++G(3df,2p) freq

 b3lyp opt

0 1
    S   -1.716682   -0.531666   -0.164029
    S    0.517907    1.481024    0.211787
    C   -0.279552    0.126724   -0.517998
    H   -0.437851    1.761615    1.117203
    H    0.346261   -0.273234   -1.314985

