%NProcShared=4
#p b3lyp/6-311++G(3df,2p) freq

 b3lyp opt

1 4
S -1.485714221  0.395472240  0.384775451
S  1.361577568 -0.123993885  0.766262366
C  0.106637599  1.001541500  0.495306414
H  1.808480452 -0.279410536 -0.513233627
H -1.616849764  0.345514181 -0.972167503

