%NProcShared=4
#p b3lyp/6-311++G(3df,2p) freq

 b3lyp opt

1 2
S -0.879476067 -1.107624062  0.212850433
C -1.634665273  0.518117268  0.014245236
H -0.058368514 -1.222630346 -0.866130921
H  0.055816940 -0.919248886  1.183101228

