%NProcShared=4
#p b3lyp/6-311++G(3df,2p) freq

 b3lyp opt

0 3
    S    0.013979    0.133980   -0.107129
    C   -1.631464    0.437706   -0.239798
    H   -2.164072    1.212764   -0.778702
    H    0.280670    0.710716    1.092134

