%NProcShared=4
#p b3lyp/6-311++G(3df,2p) freq

 b3lyp opt

0 1
    S   -1.201438    0.073673    0.639073
    S    0.809174   -0.748904    0.032590
    C    0.877008   -1.896905   -1.001069
    H    0.082104   -2.415015   -1.524007
    H   -0.625532    0.958822    1.470277

