%NProcShared=4
#p b3lyp/6-311++G(3df,2p) freq

 b3lyp opt

1 2
S -1.287085548  0.032106973  0.518136706
S  0.600390377 -0.674146356 -0.011889790
C  0.070062052  1.153067567 -0.238886465
H -1.019097482  0.086786989  1.852590009
H  0.183668307 -1.259164521 -1.169330755

