%NProcShared=4
#p b3lyp/6-311++G(3df,2p) freq

 b3lyp opt

1 2
S -1.104478364  0.170543645  0.398591577
S  0.937555526 -0.199730438  0.671637684
C  0.179679987  1.555261644  0.696014072
H  1.292327012 -0.313177911 -0.640638821
H -1.130145061  0.126079552 -0.964554389

