%NProcShared=4
#p b3lyp/6-311++G(3df,2p) freq

 b3lyp opt

0 1
S -0.028451000 -0.035771000  0.113998000
C -1.503699000 -0.416833000 -0.461852000
H -1.839406209 -1.406938138 -0.137062473
H  0.462498209 -1.066871862  0.889892473

