%NProcShared=4
#p b3lyp/6-311++G(3df,2p) freq

 b3lyp opt

0 3
    S   -1.039510   -0.152390    0.078687
    S    1.683350    0.504329    0.333528
    C    0.262581    0.859583   -0.502244
    H   -1.441238    0.551565    1.167068
    H    0.132396    1.637070   -1.237502

