%NProcShared=4
#p b3lyp/6-311++G(3df,2p) freq

 b3lyp opt

2 3
    S   -1.032893    1.423699    0.443260
    S    1.872398    0.832868    0.195080
    C    0.280297    0.558806   -0.219464
    H   -2.019020    0.770741   -0.253398
    H    0.098311   -0.232067   -0.964178

