%NProcShared=4
#p b3lyp/6-311++G(3df,2p) freq

 b3lyp opt

0 1
S  0.819487949  0.085073122  0.154938910
C -0.475592197  0.970617342 -0.190321094
H -1.075350691  1.446374779  0.582342209
H -0.810544309  1.133992221 -1.212172209

