%NProcShared=4
#p b3lyp/6-311++G(3df,2p) freq

 b3lyp opt

0 1
S -0.675708401 -0.636916056  0.131795903
C -1.803200931  0.473657484  0.029097926
H -0.072859859 -1.433443214 -0.831315443
H  0.035257859 -1.134488786  1.214576443

