%NProcShared=4
#p b3lyp/6-311++G(3df,2p) freq

 b3lyp opt

2 3
S  0.117267682  0.305821931 -0.158740840
C -1.574060777  0.810043390 -0.154820610
H -2.359530000  0.926569000 -0.941019000
H  0.315453509  0.452793517  1.221076219

