%NProcShared=4
#p b3lyp/6-311++G(3df,2p) freq

 b3lyp opt

0 1
S -1.471805000  0.924076000  0.338611000
S  1.039468000 -0.342518000 -0.292335000
C  0.183273155  0.881984107  0.474030539
H  2.284366759  0.017149116  0.081666528
H -1.860457622 -0.141552401 -0.441139000

