%NProcShared=4
#p b3lyp/6-311++G(3df,2p) freq

 b3lyp opt

1 2
S -1.184959000  0.124551000  0.617947000
S  0.717751000 -0.714222000  0.116041000
C  0.615575359 -1.824013659 -0.934433414
H  0.360556125 -2.570940235 -1.668909185
H -0.567510430  0.956898141  1.485575156

