%NProcShared=4
#p b3lyp/6-311++G(3df,2p) freq

 b3lyp opt

0 3
S -1.683578696  0.280057206  0.465154732
S  1.158771505  0.322552401 -0.754824035
C -0.192919489  0.961464578  0.040047076
H -1.669702526  0.542840577  1.791425008
H  1.267715503  1.226668036 -1.754297206

