%NProcShared=4
#p b3lyp/6-311++G(3df,2p) freq

 b3lyp opt

0 1
S -1.307057444  0.797638449  0.839096267
S  0.926548726 -0.343011707 -0.700917344
C -0.000499820  0.908355362 -0.160125230
H -1.446781951 -0.546836901  1.114487405
H  0.375581759 -1.477475201 -0.141985181

