%NProcShared=4
#p b3lyp/6-311++G(3df,2p) freq

 b3lyp opt

0 3
    S   -0.997761    0.897983    0.947889
    S    1.143656   -0.275552   -1.039289
    C    0.384540    0.827126   -0.014282
    H   -0.811767   -0.181473    1.753646
    H    0.145928   -0.538555   -1.924922

