%NProcShared=4
#p b3lyp/6-311++G(3df,2p) freq

 b3lyp opt

2 3
S  0.913163872  0.027807291  0.178794303
C -0.527046657  1.005071890 -0.203905141
H -1.103893508  1.466577559  0.627506522
H -0.824212492  1.136633441 -1.267563522

