%NProcShared=4
#p b3lyp/6-311++G(3df,2p) freq

 b3lyp opt

2 3
S -1.250673000 -0.674883000  0.724363000
S  1.516572000 -0.448708000 -0.508506000
C  0.004026823 -1.119387899 -0.343927256
H -0.244147218 -1.967264423 -1.003826633
H -0.644175658  0.366891214  1.377869711

