%NProcShared=4
#p b3lyp/6-311++G(3df,2p) freq

 b3lyp opt

2 3
S -1.480634391 -0.000391125  1.336968302
S  0.229442312 -1.276264735 -0.891620074
C -0.306347326 -0.156363539  0.191719156
H -1.153243139  1.285610081  1.728599284
H  1.258804565 -0.513998092 -1.414804438

