%NProcShared=4
#p b3lyp/6-311++G(3df,2p) freq

 b3lyp opt

2 3
    S   -0.880619   -0.261993    0.169561
    S    1.038829    0.179249   -0.631221
    C    0.301190   -1.468599   -0.304440
    H    0.156551   -2.304558   -0.998255
    H   -0.536469   -0.008554    1.499069

