%NProcShared=4
#p b3lyp/6-311++G(3df,2p) freq

 b3lyp opt

0 1
S -0.994770000  0.139457000  0.687785000
S  1.852119000  0.287963000 -0.136295000
C  0.295592423  0.682688819 -0.340626182
H -2.002258087  0.763179107  0.048824133
H -0.035145989  1.325594071 -1.153302949

