%NProcShared=4
#p b3lyp/6-311++G(3df,2p) freq

 b3lyp opt

1 4
S -1.575004536  0.288012886  0.759376054
S  0.932714534 -0.770440484 -0.306233222
C -0.094089101  0.568499435 -0.043369261
H -1.171407477  0.448461326  2.052292148
H  0.454919757 -1.195488408 -1.510937637

