%NProcShared=4
#p b3lyp/6-311++G(3df,2p) freq

 b3lyp opt

0 1
S -1.060910000  0.056725000  0.050275000
S  0.538214000 -0.474383000 -1.271719000
C  1.788799307 -0.899159191 -0.366997359
H  2.601275680 -1.168925777 -1.054422106
H -0.324947361 -0.196005929  1.148754415

