%NProcShared=4
#p b3lyp/6-311++G(3df,2p) freq

 b3lyp opt

1 4
S -0.193202170 -0.380548361  0.061185554
C -1.769375974  0.258255182  0.076257788
H -0.345318385 -1.449749830 -0.780777662
H -0.208795495 -1.159334804  1.187454485

