%NProcShared=4
#p b3lyp/6-311++G(3df,2p) freq

 b3lyp opt

1 2
    S   -0.472912    0.855912    0.756408
    S    0.792183   -0.308953   -0.556538
    C    0.409409   -1.784682   -0.670738
    H   -0.011126   -2.776681   -0.621631
    H   -1.290681   -0.160043    1.105346

