%NProcShared=4
#p b3lyp/6-311++G(3df,2p) freq

 b3lyp opt

0 1
S -0.129540000 -0.063815000 -0.000000000
H -1.313290073 -0.695091566  0.000000000
H -0.709805927  1.145757566 -0.000000000

