%NProcShared=4
#p b3lyp/6-311++G(3df,2p) freq

 b3lyp opt

1 2
S -0.131498000  0.042744000 -0.000000000
H -1.344141339 -0.578588232  0.000000000
H -0.689261661  1.285908232  0.000000000

