%NProcShared=4
#p b3lyp/6-311++G(3df,2p) freq

 b3lyp opt

2 1
S -0.395257000  0.066568000 -0.000000000
H -1.439746087 -0.911164955  0.000000000
H -1.288315913  1.184317955  0.000000000

