%NProcShared=4
#p b3lyp/6-311++G(3df,2p) freq

 b3lyp opt

2 3
S  0.294035000 -0.107887000  0.000000000
H -1.391092480 -0.029678628 -0.000000000
H -1.067844520  0.887630628 -0.000000000

