%NProcShared=4
#p b3lyp/6-311++G(3df,2p) freq

 b3lyp opt

2 3
S -0.633617000  0.083753000 -0.000000000
H -1.341063324 -1.201580930  0.000000000
H -1.148639676  1.457548930 -0.000000000

