%NProcShared=4
#p b3lyp/6-311++G(3df,2p) freq

 b3lyp opt

1 2
S -1.407771967 -0.140231693  0.335331714
S  0.427990967  0.438301693 -0.273351714
H  0.276235117  1.773483613 -0.115574381
H -1.917942117  1.081997387  0.611948381

