%NProcShared=4
#p b3lyp/6-311++G(3df,2p) freq

 b3lyp opt

0 1
S -1.550169727 -0.159278679  0.664897779
S  0.405349530 -0.032889935  0.343496962
H  0.774906184 -1.061332224 -0.476215744
H  0.617840113  0.843179870 -0.682925969

