%NProcShared=4
#p b3lyp/6-311++G(3df,2p) freq

 b3lyp opt

2 1
S -1.517886412 -0.143935649  0.772925530
S  0.130881412 -0.100757351 -0.073041530
H  0.911217247 -1.232037539 -0.301253854
H  0.723708753  1.066483539 -0.549386146

