%NProcShared=4
#p b3lyp/6-311++G(3df,2p) freq

 b3lyp opt

0 3
S -1.193934182 -0.298939091 -0.016268530
S  1.264413818  0.438960909  0.016374470
H  0.795153818  1.695382909  0.072941970
H -0.724674182 -1.555361091 -0.072836030

