%NProcShared=4
#p b3lyp/6-311++G(3df,2p) freq

 b3lyp opt

0 1
S -1.181758139  0.118293218  0.125088752
S  0.817432139 -0.414865218 -0.017937752
H -1.156453268  0.664371549  1.356028228
H  0.729073268 -1.661979549  0.483013772

