%NProcShared=4
#p b3lyp/6-311++G(3df,2p) freq

 b3lyp opt

2 1
S -0.903834000 -0.161385061 -0.010120621
S  0.974309000  0.301405939  0.010199379
H  0.768590000  1.671493939  0.071863879
H -0.698115000 -1.531473061 -0.071785121

