%NProcShared=4
#p b3lyp/6-311++G(3df,2p) freq

 b3lyp opt

1 2
S -0.631341251 -0.444189529 -0.552571975
S  1.376595320 -0.274131414 -0.669086213
H -0.850810173 -1.623751250  0.085179563
H -0.995882033  0.359882406  0.480306444

