%NProcShared=4
#p b3lyp/6-311++G(3df,2p) freq

 b3lyp opt

1 2
S -0.937993121 -0.179702939 -0.010915076
S  1.008470879  0.319720061  0.011099924
H  0.762792879  1.650520061  0.070963424
H -0.692315121 -1.510502939 -0.070778576

