%NProcShared=4
#p b3lyp/6-311++G(3df,2p) freq

 b3lyp opt

2 3
S -0.957234948 -0.315564167 -0.493688111
S  1.027279948  0.498387167 -0.457976889
H  0.758834944  1.430454596  0.537772563
H -0.687931944 -1.333240596  0.414133437

