%NProcShared=4
#p b3lyp/6-311++G(3df,2p) freq

 b3lyp opt

2 1
S -0.932322773  0.503509614  0.060452022
S  0.582485773 -0.640721614 -0.347280022
H -1.181593360  0.147164229  1.375084355
H  0.739724360 -1.304129229  0.857934645

