%NProcShared=4
#p b3lyp/6-311++G(3df,2p) freq

 b3lyp opt

0 3
S -1.168552297  0.708991396  0.144362337
S  0.817970297 -0.852523396 -0.415379337
H -1.207215682  0.200240344  1.386613153
H  0.766092682 -1.350887344  0.830594847

