%NProcShared=4
#p b3lyp/6-311++G(3df,2p) freq

 b3lyp opt

2 3
S -0.699234425 -0.260872753 -0.021991179
S  1.402017819  0.210530655 -0.098431579
H -0.931728251  0.298360491  1.221214298
H -0.543754362 -1.560004355  0.425711950

