%NProcShared=4
#p b3lyp/6-311++G(3df,2p) freq

 b3lyp opt

1 1
    S    0.296177   -1.393927    1.375281
    S    0.806728    1.460682    0.112221
    C   -0.308450    0.231323    0.722156
    C   -0.231752    0.451220   -0.764287
    H    1.532130   -1.413177    0.826436
    H   -1.172027    0.512345    1.315359
    H   -0.228825   -2.191452    0.408197

