%NProcShared=4
#p b3lyp/6-311++G(3df,2p) freq

 b3lyp opt

1 3
S -0.909835000 -0.654314000 -0.358045000
C  1.534974000 -0.307573000  0.975467000
C  0.644825965 -0.243895642 -0.047533256
H  2.543567915  0.075263906  0.847012057
H  1.276794433 -0.736095668  1.943706565
H -0.958742933 -0.216219539 -1.644124554

