%NProcShared=4
#p b3lyp/6-311++G(3df,2p) freq

 b3lyp opt

1 1
    S   -0.423755   -1.194216    0.470643
    S    1.009160    1.248671    0.844297
    C   -0.309493    0.509515   -0.173040
    C   -0.877714    0.639414    1.136671
    H    1.766582    0.143042    1.037770
    H   -0.532670    0.811887   -1.187953
    H   -1.698197   -1.430587    0.076862

