%NProcShared=4
#p b3lyp/6-311++G(3df,2p) freq

 b3lyp opt

2 2
    S   -1.999761    1.494611   -0.372236
    S    1.489677   -0.635086   -0.585204
    C    0.576837    0.466371    0.572796
    C   -0.694093    0.953946    0.065545
    H    0.415426   -0.092887    1.511699
    H    1.235798    1.319577    0.814151
    H    2.547252   -0.837923    0.257580

