%NProcShared=4
#p b3lyp/6-311++G(3df,2p) freq

 b3lyp opt

2 2
    S   -2.192904   -0.136097   -0.453702
    S    1.923902    0.475780   -0.149103
    C    0.304399    1.026996    0.538051
    C   -0.903757    0.415980    0.020862
    H    0.375274    0.848029    1.629561
    H    0.269342    2.117492    0.392543
    H    1.644944   -0.847594   -0.340633

