%NProcShared=4
#p b3lyp/6-311++G(3df,2p) freq

 b3lyp opt

2 4
    S   -0.721836    0.471470    1.109467
    C    1.521288    0.719561   -0.864308
    C    0.690387    0.016430    0.012713
    H    1.400755    1.788148   -1.099871
    H    2.353404    0.172720   -1.335379
    H   -1.454532   -0.657717    0.791074

