%NProcShared=4
#p b3lyp/6-311++G(3df,2p) freq

 b3lyp opt

0 4
    S   -0.210361   -0.060564    1.223735
    C    1.434377    0.541038   -0.960264
    C    0.585999   -0.407906   -0.236064
    H    0.971693    1.283657   -1.604514
    H    2.424178    0.776580   -0.581132
    H   -1.416419    0.377807    0.771933

