%NProcShared=4
#p b3lyp/6-311++G(3df,2p) freq

 b3lyp opt

0 2
S -0.433191000  0.902755000  0.915979000
S  1.802016000 -0.855176000 -0.140650000
C  0.941501059 -0.139518674  1.042567921
C -0.770249354  1.078225190 -0.714108103
H  1.179203883 -0.268097314  2.095663144
H -1.607592737  1.703881300 -0.975050235
H -0.164437608  0.578992833 -1.455294717

