%NProcShared=4
#p b3lyp/6-311++G(3df,2p) freq

 b3lyp opt

0 2
    S   -1.885219    0.715573    1.386717
    S    1.875587    0.091888   -0.698860
    C    0.592225    0.242122    0.447217
    C   -0.708476    0.600036    0.191066
    H    0.899633    0.019197    1.461231
    H   -0.983003    0.817788   -0.839256
    H    1.174596    0.424356   -1.797743

