%NProcShared=4
#p b3lyp/6-311++G(3df,2p) freq

 b3lyp opt

1 3
    S   -2.199399    0.253845    0.993090
    S    1.678165    1.040076   -0.741856
    C   -0.588702    0.169252    0.554218
    C    0.056303    1.074338   -0.266391
    H   -0.054775   -0.682536    0.974626
    H   -0.485430    1.918000   -0.679388
    H    2.055483   -0.079013   -0.088544

