%NProcShared=4
#p b3lyp/6-311++G(3df,2p) freq

 b3lyp opt

2 4
S -1.876049000 -1.074938000  0.545964000
S  1.049818000  0.749426000  0.558545000
C  0.390986990 -0.144156088 -0.827642976
C -0.769402409 -0.849275887 -0.779860570
H  0.959194217 -0.114105105 -1.754280420
H -1.101194510 -1.372043701 -1.686421306
H  2.167389326  1.227924511 -0.062277728

