%NProcShared=4
#p b3lyp/6-311++G(3df,2p) freq

 b3lyp opt

1 1
S -0.656847000 -1.274717000 -0.222340000
S  0.311113000  1.419187000  0.619468000
C  0.423002720 -0.329930508  0.583639921
C -1.055325004  1.608659415 -0.310927392
H  1.252089680 -0.774992839  1.126829153
H -1.270252105  2.681568510 -0.389871349
H -0.054170167 -2.439889557  0.118131849

