%NProcShared=4
#p b3lyp/6-311++G(3df,2p) freq

 b3lyp opt

0 2
S -1.780014000 -1.009476000  0.561832000
S  1.002051000  0.715269000  0.546487000
C  0.387236779 -0.143233565 -0.817416738
C -0.788589663 -0.862167391 -0.782226408
H  0.970671571 -0.098216024 -1.727730346
H -1.068173492 -1.358991455 -1.707291978
H  2.098257525  1.178522948 -0.079236931

