%NProcShared=4
#p b3lyp/6-311++G(3df,2p) freq

 b3lyp opt

1 3
    S    1.100124    0.176268    0.679866
    S   -1.644402   -0.456131    0.845399
    C   -0.507663    0.805178    0.487223
    H    1.016028   -0.201256    1.979104
    H   -2.207996   -0.623599   -0.379802
    H   -0.685102    1.554704   -0.270197

