%NProcShared=4
#p b3lyp/6-311++G(3df,2p) freq

 b3lyp opt

1 3
    S    0.123100    0.885323    0.038397
    C   -0.879238   -0.589511   -0.428912
    H    0.606173    1.017599    1.316347
    H    1.301123    1.153068   -0.613043
    H   -0.415429    2.143215   -0.067008

