%NProcShared=4
#p b3lyp/6-311++G(3df,2p) freq

 b3lyp opt

0 2
    S    0.290504   -0.350900   -0.234901
    C   -1.296402   -0.951584   -0.037166
    H    1.361466   -1.238688   -0.339009
    H    0.348956   -0.086920   -1.555709
    H   -1.307374   -1.490707    0.919901

