%NProcShared=4
#p b3lyp/6-311++G(3df,2p) freq

 b3lyp opt

2 2
    S    0.395753   -0.297159   -0.343390
    C   -1.042482   -0.963815    0.122001
    H    1.382194   -1.277962   -0.216740
    H    0.228474   -0.002563   -1.692743
    H   -1.566789   -1.577298    0.883988

