%NProcShared=4
#p b3lyp/6-311++G(3df,2p) freq

 b3lyp opt

1 1
    S    0.266246   -0.476486   -0.355798
    C   -1.273762   -0.867549    0.042700
    H    1.417306   -1.214242   -0.213559
    H    0.314253   -0.007112   -1.618228
    H   -1.326893   -1.553410    0.898002

