%NProcShared=4
#p b3lyp/6-311++G(3df,2p) freq

 b3lyp opt

1 1
    S   -0.168187    0.178963    0.865125
    S   -2.101033   -0.647466    1.044545
    C    0.595368    1.433207    0.249208
    H    0.675709   -0.485462    1.680008
    H   -1.967029   -1.343753   -0.106166
    H    0.036160    2.119674   -0.391125

