%NProcShared=4
#p b3lyp/6-311++G(3df,2p) freq

 b3lyp opt

1 1
    S    1.697754    0.642110    0.185225
    S   -1.270773   -0.148591   -0.152962
    C    0.193049    1.048793    0.299593
    H   -0.600280   -1.309101    0.012680
    H   -1.873621   -0.196320    1.058042
    H   -0.271539    1.996051    0.556914

