%NProcShared=4
#p b3lyp/6-311++G(3df,2p) freq

 b3lyp opt

1 3
S  0.403077528 -0.305047934 -0.214841731
C -0.949568172 -1.311836210  0.070490944
H  1.378958227 -1.227837598 -0.445905000
H  0.237865517 -0.002970364 -1.533450190
H -1.673562579 -1.270701629  0.876461259

