%NProcShared=4
#p b3lyp/6-311++G(3df,2p) freq

 b3lyp opt

0 2
    S   -0.163393    0.667756    0.019807
    C   -0.296519   -0.945740    0.003155
    H   -0.841240    1.632466    0.826378
    H    1.006319    1.484638    0.077032
    H   -0.596751    1.228214   -1.156158

