%NProcShared=4
#p b3lyp/6-311++G(3df,2p) freq

 b3lyp opt

2 4
S  0.153576452  0.934028334  0.054335533
C -0.588966701 -0.446386435 -0.543840585
H  0.459033769  0.831599501  1.411605163
H  1.354684984  1.219417787 -0.595178010
H -0.642843808  2.071254231 -0.081343189

