%NProcShared=4
#p b3lyp/6-311++G(3df,2p) freq

 b3lyp opt

2 2
    S    0.014224   -0.184915    0.281182
    H   -0.497756    1.141407    0.183082
    H    1.560268   -0.067473   -0.011959
    H    1.223130    0.867093   -0.080550

