%NProcShared=4
#p b3lyp/6-311++G(3df,2p) freq

 b3lyp opt

1 1
S -0.830150955  0.140041715  0.291529537
H -2.171292831  0.244330053  0.465459383
H -0.779188308  1.098439302 -0.666941149
H -0.923868299 -0.882383231 -0.594841418

