%NProcShared=4
#p b3lyp/6-311++G(3df,2p) freq

 b3lyp opt

1 1
S  0.723291316 -0.411534507 -0.051984220
S -1.332510131 -0.391516752 -0.357799467
H  0.868804164 -1.129423064  1.088751032
H  1.156800609 -1.405678675 -0.865348807
H -1.525976704 -1.718073962 -0.198774232

