%NProcShared=4
#p b3lyp/6-311++G(3df,2p) freq

 b3lyp opt

1 1
    S    0.835837    0.030218   -0.459888
    S   -0.764364    1.343619   -0.241187
    H    0.716845   -0.303536   -1.768242
    H    0.020594    2.246325    0.381971
    H    0.282948   -1.125013   -0.015732

