%NProcShared=4
#p b3lyp/6-311++G(3df,2p) freq

 b3lyp opt

2 2
    S    1.200308   -0.698153   -0.015625
    S   -0.908939   -0.363673    0.309738
    H   -1.174401   -1.471548    1.084769
    H    1.015329   -1.922843   -0.623452
    H   -0.748140    0.525238    1.345986

