%NProcShared=4
#p b3lyp/6-311++G(3df,2p) freq

 b3lyp opt

2 3
    S    0.918953    0.600193    0.215182
    C   -1.514263   -0.566571   -0.640842
    C   -0.838558    0.539337   -0.171369
    H    1.106800   -0.579184    0.885081
    H    0.894672    1.473068    1.272882
    H   -1.482072   -1.630242   -0.888438
    H   -1.329502    1.520541   -0.120699

