%NProcShared=4
#p b3lyp/6-311++G(3df,2p) freq

 b3lyp opt

1 2
S  0.028859000  0.631356000  0.210678000
C -0.118360000 -1.022415000 -0.112648000
C -0.847476939  1.963170760  0.456158137
H  0.792309068 -1.602379241 -0.211623309
H  1.346136607  0.889353576  0.280503830
H -1.110222942 -1.442726777 -0.209117397
H -1.930039469  1.810802325  0.410358227

