%NProcShared=4
#p b3lyp/6-311++G(3df,2p) freq

 b3lyp opt

0 1
    S   -0.771841    0.640048   -0.217418
    C    0.290167   -0.839172   -0.104870
    H    0.210878    1.547977   -0.322013
    H    0.931567   -0.798751    0.771464
    H    0.886199   -0.966677   -1.004600
    H   -0.383085   -1.687754   -0.007396

