%NProcShared=4
#p b3lyp/6-311++G(3df,2p) freq

 b3lyp opt

1 2
S  1.740519135 -0.016584902  0.853985048
S -0.881240746  0.399576169  0.231164160
C  0.707926305  1.267140701  0.089859572
H  1.017331185  1.434989433 -0.935926631
H -0.722833749 -0.400571823 -0.843559042
H  0.681191205  2.191877088  0.655801053
H  1.454492276  0.290282338  2.136319123

