%NProcShared=4
#p b3lyp/6-311++G(3df,2p) freq

 b3lyp opt

0 3
S -0.428797672  1.004891272 -0.720257448
C  0.937675250  0.752126717  0.280668993
H  1.778514139  0.211196366 -0.117067352
H  0.161297443  0.290263325 -1.880498521
H  0.923903502  1.140069582  1.284222955
H -1.181336589  1.749567407  0.320995321

