%NProcShared=4
#p b3lyp/6-311++G(3df,2p) freq

 b3lyp opt

0 1
    S   -0.547098   -0.213455    0.110150
    C    0.938753    0.473927   -0.061415
    H   -0.731958   -0.998294    1.247032
    H    1.480179    0.086475   -0.907327
    H    1.457799    0.929761    0.764704
    H   -1.403182    0.710256    0.632176

