%NProcShared=4
#p b3lyp/6-311++G(3df,2p) freq

 b3lyp opt

2 1
    S    1.548144   -0.696632   -0.254212
    S    0.093824    0.584780   -0.891602
    C   -0.309663    1.907352   -0.021188
    H    2.121427   -0.736213   -1.494875
    H   -1.032080    0.090336   -1.507156
    H   -1.292076    2.363025   -0.191834
    H    0.419637    2.348337    0.664501

