%NProcShared=4
#p b3lyp/6-311++G(3df,2p) freq

 b3lyp opt

2 1
S -0.806009493  0.606512889 -0.211216064
C  0.006705596 -0.800786213 -0.101175347
H  0.247038330  1.492657213 -0.319999923
H  1.121257802 -0.769519852  0.398892344
H  1.094694662 -0.867155577 -0.653576289
H -0.499830160 -1.766137669  0.001163066

