%NProcShared=4
#p b3lyp/6-311++G(3df,2p) freq

 b3lyp opt

1 2
S  1.221082186  0.295918434  1.035976185
S -1.169603083  0.217386014 -0.285040219
C  0.195685802  1.379680279  0.001148551
H  0.681417202  1.736640311 -0.899115695
H -0.624408766 -0.421612041 -1.341373158
H -0.168199241  2.201521833  0.610825618
H  1.857353879 -0.340087790  0.029969698

