%NProcShared=4
#p b3lyp/6-311++G(3df,2p) freq

 b3lyp opt

2 1
S  0.771011333 -0.366058278  0.187932306
H  0.832706060 -0.854175223 -1.110974092
H  1.604757347 -1.118356707  1.005328708
H  1.181326680  0.960821209  0.203881111
H -0.534744753 -0.452522391  0.653493495

