%NProcShared=4
#p b3lyp/6-311++G(3df,2p) freq

 b3lyp opt

0 1
S  1.026530719  0.467637506 -0.148150659
H -0.135613159  0.056565594 -0.807692894
H  1.874131156  0.624700314  0.952512435
H  0.286237560  1.544071359  0.349655197
H  1.452280436 -0.862805451 -0.204835656

