%NProcShared=4
#p b3lyp/6-311++G(3df,2p) freq

 b3lyp opt

2 1
S  1.254700161  0.023177644  0.269026168
S -0.869117073  0.583975386  0.564168185
H -1.346054173 -0.364314809 -0.306016492
H  1.731637261  0.971467838  1.139210845
H -1.033160576 -0.217390377  1.666369304
H  1.418743664  0.824543406 -0.833174951

