%NProcShared=4
#p b3lyp/6-311++G(3df,2p) freq

 b3lyp opt

1 3
    S    0.755137   -0.009994    1.057158
    C   -2.051454   -0.263412    0.327850
    C   -0.693998   -0.752969    0.516288
    H    1.648152   -0.406875    0.108865
    H   -2.674051   -1.082949   -0.040282
    H   -2.489165    0.094388    1.267708
    H   -2.093030    0.547056   -0.409943
    H    1.205948   -0.905522    1.978712

