%NProcShared=4
#p b3lyp/6-311++G(3df,2p) freq

 b3lyp opt

1 1
    S    0.289825    0.020180   -0.496255
    S   -1.769944    0.162154   -0.279857
    C    0.949943    1.667822   -0.104971
    H    0.868330    1.780541    0.972965
    H   -1.803185   -0.876584    0.578409
    H    0.368029    0.082766   -1.844212
    H    1.996620    1.648742   -0.408636
    H    0.394747    2.437387   -0.631922

