%NProcShared=4
#p b3lyp/6-311++G(3df,2p) freq

 b3lyp opt

2 1
    S    0.652050    1.388221   -0.694660
    C   -0.093353   -0.067922    0.202663
    C    0.782711   -0.933876    0.920615
    H   -0.880979   -0.586755   -0.366275
    H    1.838768   -0.727117    1.121083
    H   -0.682646    0.334888    1.082309
    H    0.358455   -1.840913    1.365754
    H    0.644201    0.858507   -1.949966
    H   -0.501186    2.093042   -0.866069

