%NProcShared=4
#p b3lyp/6-311++G(3df,2p) freq

 b3lyp opt

1 1
    S    1.044474   -0.017955    0.106878
    C   -0.506927    0.250502    0.010080
    C   -1.834266    0.267004   -0.099994
    H    1.500658    1.259955    0.310344

