%NProcShared=4
#p b3lyp/6-311++G(3df,2p) freq

 b3lyp opt

2 4
    S   -2.095874    0.867649    0.468700
    S    0.890535    0.299973   -0.417463
    C   -0.664536    0.556252    0.051039
    C    0.739462   -1.273224   -1.265574
    H    1.007425   -2.255987   -0.854868

