%NProcShared=4
#p b3lyp/6-311++G(3df,2p) freq

 b3lyp opt

1 1
S  0.444824000  0.138314000 -0.897596000
C  0.064476000 -1.129510000  0.050161000
C -0.899020580 -0.116770942  0.283867467
H  0.421483957 -2.127763691  0.283169393

