%NProcShared=4
#p b3lyp/6-311++G(3df,2p) freq

 b3lyp opt

2 2
S  0.392552000  0.214358000 -0.895706000
C  0.032581000 -1.165999000  0.093731000
C -0.809701972 -0.104115950  0.207586198
H  0.416248666 -2.180027601  0.313883619

