%NProcShared=4
#p b3lyp/6-311++G(3df,2p) freq

 b3lyp opt

2 4
S  0.006499000 -0.247615000  0.159497000
C  1.469479000  0.433224000  0.412889000
C -1.296313261  0.595137223 -0.271765710
H  2.523335128  0.218620318  0.695461520

