%NProcShared=4
#p b3lyp/6-311++G(3df,2p) freq

 b3lyp opt

0 4
    S   -2.247532   -0.315685   -0.405779
    S    0.620286   -0.608556    0.283117
    C    1.875216    0.260110    0.904260
    C   -0.816483    0.348542    0.199997
    H   -0.787765    1.379123    0.539019

