%NProcShared=4
#p b3lyp/6-311++G(3df,2p) freq

 b3lyp opt

2 4
S  0.864304000  0.074073000 -1.192387000
C -0.039550000 -0.808561000 -0.033181000
C -1.094136205 -0.632785042  0.700907222
H  0.301129464 -1.868467501  0.244243332

