%NProcShared=4
#p b3lyp/6-311++G(3df,2p) freq

 b3lyp opt

0 2
S -1.404289555  0.336340383  0.067017724
S  1.077397445 -0.290153617 -0.213009276
C  0.155580867  1.038485266  0.482622225
C -0.461998623 -0.861975299 -0.738730899
H -0.702960436 -1.414696103 -1.637628258

