%NProcShared=4
#p b3lyp/6-311++G(3df,2p) freq

 b3lyp opt

2 4
    S   -2.100948    0.915516    1.353895
    S    1.267216   -0.619511   -1.302250
    C   -0.939903    0.338244    0.368926
    C   -0.070647   -0.109521   -0.392373
    H    0.546947   -1.324953   -2.242774

