%NProcShared=4
#p b3lyp/6-311++G(3df,2p) freq

 b3lyp opt

1 1
S -1.771706000  0.224868000  0.311013000
S  0.900747000 -0.615272000 -1.253380000
C -0.259325023  0.827595897  0.989689632
C -0.194932267  0.016834137 -0.194722141
H  0.027872476 -1.254162408 -2.067236898

