%NProcShared=4
#p b3lyp/6-311++G(3df,2p) freq

 b3lyp opt

2 2
S  1.110001000  0.194306000 -0.285350000
C -0.460375000  0.174779000  0.072003000
C -1.709292400 -0.010509159  0.171325046
H  1.497002800  1.147353910  0.659287450

