%NProcShared=4
#p b3lyp/6-311++G(3df,2p) freq

 b3lyp opt

0 4
    S   -1.249127   -0.333837   -0.425029
    S    1.708245    0.064625    0.001163
    C   -1.303610    1.081181    0.418661
    C    0.406417   -0.806031   -0.603256
    H    0.589623   -1.728541   -1.144867

