%NProcShared=4
#p b3lyp/6-311++G(3df,2p) freq

 b3lyp opt

0 2
    S   -2.249250   -0.259327   -0.385566
    S    0.669609   -0.663983    0.276032
    C    1.807735    0.327990    0.910686
    C   -0.870679    0.323792    0.175700
    H   -0.713693    1.335060    0.543762

