%NProcShared=4
#p b3lyp/6-311++G(3df,2p) freq

 b3lyp opt

2 4
    S   -1.312099   -0.316183   -0.413802
    S    1.774486   -0.000701   -0.031915
    C   -1.367116    1.064287    0.401006
    C    0.476411   -0.762862   -0.572959
    H    0.579867   -1.707145   -1.135660

