%NProcShared=4
#p b3lyp/6-311++G(3df,2p) freq

 b3lyp opt

0 2
S -1.830378000  0.162463000  0.228764000
S  0.913507000 -0.627458000 -1.271856000
C -0.199463092  0.826321138  0.978947895
C -0.155288788  0.066162163 -0.128167023
H -0.025604437 -1.228923604 -2.021426466

