%NProcShared=4
#p b3lyp/6-311++G(3df,2p) freq

 b3lyp opt

0 4
S  0.041932000 -0.356021000  0.183406000
C  1.439965000  0.482645000  0.398539000
C -1.228885730  0.651068433 -0.263471948
H  2.450104756  0.221605798  0.677127378

