%NProcShared=4
#p b3lyp/6-311++G(3df,2p) freq

 b3lyp opt

2 2
S -0.728430049  0.161592453  0.091613576
C  2.236909898  0.145555953  0.029248901
C  0.845010000 -0.017539000  0.026624000
H -0.748320222  1.547887062  0.351182741

