%NProcShared=4
#p b3lyp/6-311++G(3df,2p) freq

 b3lyp opt

0 2
    S   -0.970606   -0.442037   -0.510585
    S    2.027791   -0.398537    0.557822
    C    0.602499   -0.478404   -0.039604
    C   -1.890457    0.460989    0.565583
    H   -1.305539    0.874616    1.394813

