%NProcShared=4
#p b3lyp/6-311++G(3df,2p) freq

 b3lyp opt

2 2
    S   -1.006383   -0.434066   -0.747127
    S    1.000080    1.909507    0.102122
    C    0.122650    0.791663   -0.319563
    C   -0.606991   -1.998533    0.414229
    H   -0.422885   -0.839649   -1.923782

