%NProcShared=4
#p b3lyp/6-311++G(3df,2p) freq

 b3lyp opt

0 4
S -0.467150913  0.124723959 -0.255531572
C -1.434700666 -1.143937817  0.324586894
C -0.056507944  1.761694044 -0.071428470
H  0.283055547 -0.371422401 -1.285010788

