%NProcShared=4
#p b3lyp/6-311++G(3df,2p) freq

 b3lyp opt

2 4
S  1.077550255 -0.073033136  0.102440813
C -0.510106524  0.230687201  0.007321201
C -1.796933000  0.327425000 -0.089038000
H  1.433459145  1.274470947  0.306242561

