%NProcShared=4
#p b3lyp/6-311++G(3df,2p) freq

 b3lyp opt

2 2
    S   -2.007890    0.909080    1.333343
    S    1.201932   -0.608416   -1.268577
    C   -0.949120    0.354737    0.394843
    C   -0.058210   -0.138044   -0.433209
    H    0.515952   -1.317580   -2.240975

