%NProcShared=4
#p b3lyp/6-311++G(3df,2p) freq

 b3lyp opt

1 1
S -1.301131000 -1.396343000 -0.250337000
S -0.372114000  1.404677000  0.869944000
C  0.449038601 -1.202095013 -0.272912154
C -0.345742684 -0.116313227  0.230043307
H  0.973974005  1.567889891  0.858378159

