%NProcShared=4
#p b3lyp/6-311++G(3df,2p) freq

 b3lyp opt

0 4
S  0.927410000 -0.016708000  0.095591000
C -0.626946000  0.753772000  0.066115000
C -1.728178189 -0.092539169 -0.138110495
H  1.631635271  1.114950032  0.303949935

