%NProcShared=4
#p b3lyp/6-311++G(3df,2p) freq

 b3lyp opt

1 3
    S   -2.226225   -0.231795   -0.374753
    S    0.630549   -0.711599    0.253829
    C    1.744762    0.381412    0.905745
    C   -0.808369    0.298694    0.186432
    H   -0.696993    1.326820    0.549363

