%NProcShared=4
#p b3lyp/6-311++G(3df,2p) freq

 b3lyp opt

0 2
S  1.063179421 -0.018588399  0.108346676
C -0.544343134  0.240627277  0.005699414
C -1.816776000  0.288342000 -0.095779000
H  1.501942154  1.249218450  0.308313392

