%NProcShared=4
#p b3lyp/6-311++G(3df,2p) freq

 b3lyp opt

1 3
    S   -1.190599    0.397711   -0.081005
    C    1.492701   -0.433840    0.120741
    C    0.298347   -0.063795    0.030808
    H    2.516212   -0.751594    0.197828

