%NProcShared=4
#p b3lyp/6-311++G(3df,2p) freq

 b3lyp opt

0 4
S -0.896003000  0.600257000  0.168556000
C  1.480238000 -0.248934000 -0.668745000
C  0.319228523 -0.451054158  0.007644719
H  1.864554730  0.601797899 -1.232191629

