%NProcShared=4
#p b3lyp/6-311++G(3df,2p) freq

 b3lyp opt

1 3
S -0.380888977  0.066251365 -0.377207223
C -1.478198853 -0.971191119  0.450141384
C -0.171552427  1.717007839  0.065582636
H  0.353308621 -0.440851321 -1.427388105

