%NProcShared=4
#p b3lyp/6-311++G(3df,2p) freq

 b3lyp opt

2 2
    S   -1.559355    0.342632    0.180308
    S    1.237219   -0.362644   -0.133461
    C    0.051540    0.798537    0.093039
    C   -0.417713   -0.739424   -0.608096
    H   -0.647941   -1.231107   -1.571520

