%NProcShared=4
#p b3lyp/6-311++G(3df,2p) freq

 b3lyp opt

2 2
S  1.023034000 -0.046386000  0.101410000
C -0.497591000  0.413768000  0.032089000
C -1.863575927  0.145426690 -0.118299285
H  1.542041119  1.246647717  0.312509422

