%NProcShared=4
#p b3lyp/6-311++G(3df,2p) freq

 b3lyp opt

1 3
    S   -1.324713   -0.365864   -0.448811
    S    1.645941    0.066272   -0.001661
    C   -1.192550    1.056950    0.410995
    C    0.408839   -0.775151   -0.584623
    H    0.614033   -1.704811   -1.129230

