%NProcShared=4
#p b3lyp/6-311++G(3df,2p) freq

 b3lyp opt

0 2
S  0.501797000  0.171507000 -0.959095000
C  0.024296000 -1.116093000  0.074326000
C -0.896750797 -0.189695479  0.319689229
H  0.402026570 -2.101708250  0.284178249

