%NProcShared=4
#p b3lyp/6-311++G(3df,2p) freq

 b3lyp opt

1 1
    S   -2.072837    1.048520    0.384972
    S    0.865232    0.038905   -0.360113
    C   -0.703506    0.567525    0.034355
    C    0.412829   -1.501848   -0.892326
    H    1.375294   -1.958440   -1.185054

