%NProcShared=4
#p b3lyp/6-311++G(3df,2p) freq

 b3lyp opt

0 2
    S   -1.216159   -0.081549   -0.698150
    S    1.823957    0.029726   -0.144280
    C   -1.472895    0.890363    0.587764
    C    0.515582   -0.758354   -0.595402
    H    0.501065   -1.802789   -0.903262

