%NProcShared=4
#p b3lyp/6-311++G(3df,2p) freq

 b3lyp opt

0 4
    S    0.447585    0.200037   -0.877259
    C   -0.185427   -1.335844   -0.104091
    C   -0.747278   -0.095478    0.302243
    H    0.516765   -2.004521    0.398561

