%NProcShared=4
#p b3lyp/6-311++G(3df,2p) freq

 b3lyp opt

0 4
S -0.793652000 -0.087305000  0.508869000
S  1.619393000  1.251048000 -0.868416000
C  0.457314869  0.933649203  0.149243505
C -0.938297685 -1.302184250 -0.637767923
H -1.622674204 -2.133171428 -0.736170981

