%NProcShared=4
#p b3lyp/6-311++G(3df,2p) freq

 b3lyp opt

1 1
S -1.464044566  0.581115143 -0.195667936
S  1.188425434 -0.088720857 -0.494774936
C  0.020347875  0.433583749  0.637669548
C -0.405215583 -0.531874590 -0.974113370
H -0.675808286 -1.586097049 -1.012838217

