%NProcShared=4
#p b3lyp/6-311++G(3df,2p) freq

 b3lyp opt

2 2
S -1.807742000 -0.130658000 -0.439019000
S  1.242244000  0.369423000  0.930697000
C -0.699321999 -1.325085619 -0.409383585
C -0.054967782 -0.275059975  0.201246840
H  0.723470379  1.619168123  1.151794947

