%NProcShared=4
#p b3lyp/6-311++G(3df,2p) freq

 b3lyp opt

0 4
    S   -0.737403    0.217061    0.103646
    C    1.984212    0.456267    0.087673
    C    0.858750   -0.372491   -0.044019
    H   -0.500392    1.536684    0.351238

