%NProcShared=4
#p b3lyp/6-311++G(3df,2p) freq

 b3lyp opt

0 2
S -0.430530000  0.093278000 -0.308779000
C -1.448343000 -1.043599000  0.380122000
C -0.109584783  1.744925915 -0.018245394
H  0.312803396 -0.423416974 -1.340798276

