%NProcShared=4
#p b3lyp/6-311++G(3df,2p) freq

 b3lyp opt

1 3
S -1.448619903  0.408044616  0.011605272
S  1.137450615 -0.244899220 -0.280106460
C  0.118893348  0.868234549  0.538240136
C -0.432980200 -0.713450977 -0.813889567
H -0.711021556 -1.510325533 -1.495110795

