%NProcShared=4
#p b3lyp/6-311++G(3df,2p) freq

 b3lyp opt

1 3
    S   -0.490326   -0.228337    0.000000
    C    1.086661    0.305394    0.000000
    H    1.526014    1.309663    0.000000

