%NProcShared=4
#p b3lyp/6-311++G(3df,2p) freq

 b3lyp opt

0 2
    S   -0.176761    0.170891    0.000000
    C    1.325519   -0.492062    0.000000
    H    0.065372    1.524452    0.000000

