%NProcShared=4
#p b3lyp/6-311++G(3df,2p) freq

 b3lyp opt

0 2
    S   -0.426118   -0.195769    0.000000
    C    1.051518    0.295071    0.000000
    H    1.496950    1.287417    0.000000

