%NProcShared=4
#p b3lyp/6-311++G(3df,2p) freq

 b3lyp opt

1 1
    S    0.541034    0.428780    0.000000
    C   -0.730954   -0.330041    0.000000
    H   -1.675733   -0.895876   -0.000000

