%NProcShared=4
#p b3lyp/6-311++G(3df,2p) freq

 b3lyp opt

1 3
    S   -0.184674    0.145619    0.000000
    C    1.290717   -0.436659    0.000000
    H    0.108086    1.494319    0.000000

