%NProcShared=4
#p b3lyp/6-311++G(3df,2p) freq

 b3lyp opt

2 4
    S   -0.611117   -0.288100    0.000000
    C    1.156054    0.316083    0.000000
    H    1.577413    1.358735    0.000000

