%NProcShared=4
#p b3lyp/6-311++G(3df,2p) freq

 b3lyp opt

0 4
    S   -0.536819   -0.238788    0.000000
    C    1.138917    0.304734    0.000000
    H    1.520253    1.320773    0.000000

