%NProcShared=4
#p b3lyp/6-311++G(3df,2p) freq

 b3lyp opt

0 4
    S   -0.463609   -0.056530    0.000000
    C    1.583392    0.016718    0.000000
    H   -0.827208    1.252130    0.000000

