%NProcShared=4
#p b3lyp/6-311++G(3df,2p) freq

 b3lyp opt

1 3
    S   -0.429697   -0.092576    0.000000
    C    1.471467    0.066489    0.000000
    H   -0.749195    1.238406    0.000000

