%NProcShared=4
#p b3lyp/6-311++G(3df,2p) freq

 b3lyp opt

0 4
    S   -0.220478    0.176907    0.000000
    C    1.348916   -0.470296    0.000000
    H    0.085693    1.496669    0.000000

