%NProcShared=4
#p b3lyp/6-311++G(3df,2p) freq

 b3lyp opt

2 2
S -0.443426404 -0.369631556 -0.000000000
C  0.828573503  0.547894599  0.000000000
H  1.738008887  1.207339616  0.000000000

