%NProcShared=4
#p b3lyp/6-311++G(3df,2p) freq

 b3lyp opt

1 1
    S   -0.317452    0.084314    0.000000
    C    1.262919   -0.233627    0.000000
    H    0.268662    1.352594    0.000000

