%NProcShared=4
#p b3lyp/6-311++G(3df,2p) freq

 b3lyp opt

1 1
S  1.027117238  0.219373368 -0.311411396
S -1.073198828 -0.502339509 -0.628416335
C -0.441728141  0.790053812  0.183304966
H -0.816267432  1.623365749  0.767645812

