%NProcShared=4
#p b3lyp/6-311++G(3df,2p) freq

 b3lyp opt

2 2
S  0.988429127  0.165964754 -0.341812338
S -1.003846942 -0.518608638 -0.642501327
C -0.454348615  0.818482111  0.202292327
H -0.834282569  1.664711927  0.793025329

