%NProcShared=4
#p b3lyp/6-311++G(3df,2p) freq

 b3lyp opt

2 2
    S    1.102647    0.229836    0.300028
    S   -0.978484   -0.227479    0.494411
    C   -0.771376   -1.654763   -0.396261
    H    0.916484    1.395271    1.021953

