%NProcShared=4
#p b3lyp/6-311++G(3df,2p) freq

 b3lyp opt

0 4
S  1.163628958  0.289131016 -0.223155554
S -1.241403042 -0.537227984 -0.586110554
C -0.442463193  0.867403436  0.012273556
H -0.783761972  1.511137727  0.808181759

