%NProcShared=4
#p b3lyp/6-311++G(3df,2p) freq

 b3lyp opt

0 4
    S    1.155099    0.085879    0.591520
    S   -0.797367    0.359443   -0.045920
    C   -1.572843   -1.165737   -0.132944
    H    0.933285    0.080920    1.923459

