%NProcShared=4
#p b3lyp/6-311++G(3df,2p) freq

 b3lyp opt

1 3
    S    0.389801    1.647517   -0.617385
    S   -0.447500   -1.101601    0.089990
    C   -0.361937    0.546220    0.283813
    H   -0.598465   -1.422885    1.403624

