%NProcShared=4
#p b3lyp/6-311++G(3df,2p) freq

 b3lyp opt

2 4
S  1.305267800  0.533040270 -0.150191516
S -1.514350075 -0.435683406 -0.575652008
C -0.356481390  0.599239929  0.053176290
H -0.738388515  1.433816208  0.683924291

