%NProcShared=4
#p b3lyp/6-311++G(3df,2p) freq

 b3lyp opt

2 2
S  0.641080646  1.759928468 -0.046280530
S -0.574941403 -1.163489512 -0.142840536
C  0.054428000  0.372716000 -0.017405000
H -0.812838765 -1.312818608  1.215806123

