%NProcShared=4
#p b3lyp/6-311++G(3df,2p) freq

 b3lyp opt

0 2
S  1.221988564  0.422493613 -0.199673946
S -1.371904620 -0.468761485 -0.591140552
C -0.389920935  0.674085111  0.104201415
H -0.764180993  1.502567560  0.697869949

