%NProcShared=4
#p b3lyp/6-311++G(3df,2p) freq

 b3lyp opt

1 3
S  1.179243389  0.362022495 -0.235316483
S -1.293795734 -0.487739873 -0.608559513
C -0.407370185  0.712956946  0.131420652
H -0.782040762  1.543234759  0.723625023

