%NProcShared=4
#p b3lyp/6-311++G(3df,2p) freq

 b3lyp opt

2 4
S  0.702993000  1.801500000 -0.394160000
S -0.517992000 -1.022871000 -0.126631000
C  0.014140313  0.408529367  0.416178031
H -0.890157761 -1.531351408  1.114052625

