%NProcShared=4
#p b3lyp/6-311++G(3df,2p) freq

 b3lyp opt

0 2
S  0.419792000  1.672669000 -0.114248000
S -0.959556000 -1.078273000  0.212309000
C -0.565610187  0.457420028 -0.258279245
H  0.022319245 -1.381532339  1.117576935

