%NProcShared=4
#p b3lyp/6-311++G(3df,2p) freq

 b3lyp opt

1 1
S  0.630894654  1.739002465 -0.035463529
S -0.573909400 -1.158776513 -0.135457536
C  0.047271000  0.355233000 -0.018860000
H -0.796528133 -1.279124454  1.199062073

