%NProcShared=4
#p b3lyp/6-311++G(3df,2p) freq

 b3lyp opt

0 2
S  0.668880000  1.738540000 -0.332974000
S -0.529821000 -1.046156000 -0.115130000
C  0.045107772  0.462069972  0.349769764
H -0.875848262 -1.498368665  1.107690828

