%NProcShared=4
#p b3lyp/6-311++G(3df,2p) freq

 b3lyp opt

1 3
    S    0.405222    1.649493   -0.034471
    S   -1.007269   -1.028654    0.286114
    C   -0.550018    0.405029   -0.366676
    H    0.069965   -1.356210    1.071145

