%NProcShared=4
#p b3lyp/6-311++G(3df,2p) freq

 b3lyp opt

1 1
    S    0.699339   -0.595569    0.908339
    S   -1.375354   -0.311706    1.013375
    C   -0.694121   -0.438083   -0.486218
    H    1.088310    0.705865    0.900619

