%NProcShared=4
#p b3lyp/6-311++G(3df,2p) freq

 b3lyp opt

2 4
S  0.479492000  1.715490000 -0.090176000
S -0.975643000 -1.091913000  0.206697000
C -0.634053968  0.401898285 -0.282418240
H  0.047772620 -1.355600414  1.122442876

