%NProcShared=4
#p b3lyp/6-311++G(3df,2p) freq

 b3lyp opt

0 2
    S    0.626348    0.884767   -0.205419
    S   -0.369769   -0.894992   -0.010602
    C   -1.160820    0.845571    0.081380
    H   -0.113861   -1.166091    1.294682

