%NProcShared=4
#p b3lyp/6-311++G(3df,2p) freq

 b3lyp opt

0 4
    S    0.938822   -1.068287    0.100712
    S   -0.886984    1.165482   -0.088591
    C   -0.634380   -0.488974    0.138122
    H    1.134580   -1.360395   -1.224937

