%NProcShared=4
#p b3lyp/6-311++G(3df,2p) freq

 b3lyp opt

1 3
    S    0.120368    0.000000    0.000000
    H   -1.249277    0.000000    0.000000

