%NProcShared=4
#p b3lyp/6-311++G(3df,2p) freq

 b3lyp opt

2 2
    S    0.177668    0.000000    0.000000
    H   -1.278729    0.000000    0.000000

