%NProcShared=4
#p b3lyp/6-311++G(3df,2p) freq

 b3lyp opt

0 2
    S    0.122470    0.000000    0.000000
    H   -1.223531    0.000000    0.000000

