%NProcShared=4
#p b3lyp/6-311++G(3df,2p) freq

 b3lyp opt

0 2
    S    0.922702   -0.111332    0.000000
    S   -1.035752    0.162092    0.000000
    H    1.020253   -1.463288    0.000000

