%NProcShared=4
#p b3lyp/6-311++G(3df,2p) freq

 b3lyp opt

0 4
    S   -1.235105    0.109161    0.000000
    S    0.816093   -0.029245   -0.000000
    H   -2.724947    0.264739    0.000000

