%NProcShared=4
#p b3lyp/6-311++G(3df,2p) freq

 b3lyp opt

2 4
    S    1.076209   -0.098471    0.000000
    S   -1.180281    0.171806    0.000000
    H    1.011276   -1.485864    0.000000

