%NProcShared=4
#p b3lyp/6-311++G(3df,2p) freq

 b3lyp opt

1 3
    S    0.959851   -0.083345    0.000000
    S   -1.003569    0.118081    0.000000
    H    0.950921   -1.447266    0.000000

