%NProcShared=4
#p b3lyp/6-311++G(3df,2p) freq

 b3lyp opt

1 1
    S    0.880997   -0.100521    0.000000
    S   -0.982235    0.154598    0.000000
    H    1.008441   -1.466606    0.000000

