%NProcShared=4
#p b3lyp/6-311++G(3df,2p) freq

 b3lyp opt

0 4
    S    1.653266    0.341392    0.000000
    S   -0.787557   -0.408539    0.000000
    H    1.926147   -0.974615    0.000000

