%NProcShared=4
#p b3lyp/6-311++G(3df,2p) freq

 b3lyp opt

2 2
    S    0.912021   -0.061283    0.000000
    S   -0.978210    0.119272    0.000000
    H    0.973392   -1.470517    0.000000

