%NProcShared=4
#p b3lyp/6-311++G(3df,2p) freq

 b3lyp opt

0 3
    S   -0.951274    0.000000    0.000000
    S    0.951274    0.000000    0.000000

