%NProcShared=4
#p b3lyp/6-311++G(3df,2p) freq

 b3lyp opt

2 1
    S   -0.884179    0.000000    0.000000
    S    0.884179    0.000000    0.000000

