%NProcShared=2
#p b3lyp/6-311++G(3df,2p) opt(MaxCycles=200) Symmetry=None

 b3lyp opt

-1 2
    C   -0.164720    0.112766   -0.980263
    C    0.472551   -0.073359    1.583415
    O    0.096914    0.014112    0.160634

