%NProcShared=2
#p b3lyp/6-311++G(3df,2p) opt(MaxCycles=200) Symmetry=None

 b3lyp opt

-1 4
    C    0.655916   -0.278031    0.062635
    C   -0.700189    0.144644   -0.090464
    C   -1.970476   -0.108656   -0.289817
    C    1.572931   -1.213097    0.110154
    O    0.316006    1.070861    0.131403

