%NProcShared=2
#p b3lyp/6-311++G(3df,2p) opt(MaxCycles=200) Symmetry=None

 b3lyp opt

-1 2
    C   -1.096842    0.000000    0.000000
    O    0.767607    0.000000    0.000000

