%NProcShared=2
#p b3lyp/6-311++G(3df,2p) opt(MaxCycles=200) Symmetry=None

 b3lyp opt

-1 2
    C    1.440272    0.089032    0.322150
    C    0.145406    0.343902   -0.184023
    H    1.838375   -0.683614    0.980919
    H   -1.036900   -1.045772    0.529384
    O   -0.938545   -0.238208   -0.031298

