%NProcShared=2
#p b3lyp/6-311++G(3df,2p) opt(MaxCycles=200) Symmetry=None

 b3lyp opt

-1 4
    C    1.297982    1.119763    0.216225
    C   -0.782856   -0.222103   -0.584527
    C   -1.843769   -0.731426   -1.004714
    C    0.336051    0.214732   -0.134347
    H   -2.756433   -1.157990   -1.366966
    H    1.179176    2.218366    0.088948
    O    2.408927    0.818846    0.714349

