%NProcShared=2
#p b3lyp/6-311++G(3df,2p) opt(MaxCycles=200) Symmetry=None

 b3lyp opt

-1 1
    C    1.166022   -0.921374    0.231452
    C    0.122855   -0.459581   -0.327805
    H    1.276645   -0.867713    1.313548
    H    1.943668   -1.394449   -0.366515
    H   -1.629541   -0.446655   -1.028072
    O   -0.819412    0.093400   -0.875703

