%NProcShared=2
#p b3lyp/6-311++G(3df,2p) opt(MaxCycles=200) Symmetry=None

 b3lyp opt

-1 1
    C   -0.129315    0.006491    0.311952
    C    0.217200    1.360021   -0.205444
    H   -0.723215    0.159652    1.253281
    O    0.156593   -1.047161   -0.162847

