%NProcShared=2
#p b3lyp/6-311++G(3df,2p) opt(MaxCycles=200) Symmetry=None

 b3lyp opt

-1 1
    C    1.015995   -0.195461    0.000000
    H   -0.421662    1.051996    0.000000
    O   -0.174276    0.082257    0.000000

